1299
 generated by VMD
 H        24.812000       22.184000       19.108999
 O        24.014000       22.044001       19.695999
 H        23.492001       21.337000       19.219000
 O        17.915001       12.852000       12.888000
 H        18.247000       13.543000       12.247000
 H        17.565001       12.128000       12.294000
 O        17.524000       28.252001       22.152000
 H        17.841999       29.134001       21.806000
 H        16.749001       28.493000       22.736000
 O        18.271999       22.452000        8.081000
 H        18.632999       21.922001        8.848000
 H        17.650999       21.813999        7.625000
 O        22.430000       24.527000       31.340000
 H        22.674999       23.743000       31.910000
 H        22.090000       25.200001       31.997999
 O        25.090000       23.959999       22.405001
 H        24.836000       23.681999       21.479000
 H        26.000000       23.563000       22.528999
 O        24.774000       20.639999       26.518999
 H        24.292999       19.797001       26.761000
 H        24.915001       21.091999       27.400000
 O        26.990000       22.202999       21.118000
 H        26.249001       21.867001       21.698000
 H        26.681000       23.114000       20.844999
 O         6.883000       20.799000       22.990000
 H         7.731000       20.466999       23.403000
 H         6.530000       21.448000       23.664000
 O        22.195999       12.513000       19.542000
 H        21.895000       11.768000       20.136999
 H        22.528000       13.206000       20.181000
 O        24.367001       14.196000       27.806999
 H        24.759001       13.864000       26.948999
 H        25.039000       14.862000       28.132000
 O         9.054000       23.271000       16.103001
 H         9.000000       23.179001       15.109000
 H        10.012000       23.068001       16.306999
 O        13.728000       24.315001       29.715000
 H        14.398000       24.827999       29.177999
 H        13.236000       23.780001       29.028000
 O        14.471000       25.164000       21.554001
 H        14.885000       25.186001       22.464001
 H        13.759000       25.864000       21.601999
 O        26.294001       31.275000       22.228001
 H        26.728001       31.339001       23.125999
 H        26.431000       30.319000       21.968000
 O        26.993999       11.521000       25.850000
 H        26.171000       11.436000       25.288000
 H        27.117001       12.509000       25.940001
 O        16.539000       28.601999       27.834000
 H        15.693000       28.079000       27.733000
 H        16.972000       28.525000       26.936001
 O        22.819000       23.562000       21.747000
 H        23.183001       24.097000       22.509001
 H        22.768999       22.632999       22.114000
 O        19.599001       24.837999       14.635000
 H        20.294001       25.205000       14.016000
 H        18.903999       24.469999       14.018000
 O        11.460000       21.896000       29.299999
 H        12.202000       22.159000       29.917000
 H        10.878000       21.312000       29.867001
 O        13.460000        8.606000       19.737000
 H        13.490000        8.653000       20.735001
 H        13.017000        7.729000       19.555000
 O        26.688999       19.632999       27.143999
 H        25.881001       19.410000       27.688999
 H        27.282000       20.115000       27.789000
 O        12.680000       24.355000       15.838000
 H        12.330000       25.240999       16.143000
 H        13.173000       24.573999       14.996000
 O        17.500000       25.332001       29.830000
 H        18.055000       26.125000       29.579000
 H        18.141001       24.566999       29.771999
 O        24.608999        7.817000       20.898001
 H        25.282000        8.251000       21.495001
 H        23.750999        7.908000       21.403999
 O        19.438000       10.285000       16.542000
 H        18.832001       10.543000       15.790000
 H        18.857000        9.725000       17.132000
 O        11.378000       19.670000       24.247000
 H        12.271000       19.520000       24.670000
 H        11.565000       20.341000       23.530001
 O        19.982000       33.490002       17.847000
 H        20.767000       33.112999       18.339001
 H        19.790001       34.344002       18.330000
 O        16.937000       23.412001       19.667999
 H        16.820999       22.419001       19.660999
 H        17.719000       23.554001       20.275000
 O        27.579000       22.372999       10.254000
 H        28.063000       21.629000        9.795000
 H        26.978001       22.738001        9.543000
 O        12.743000       19.747999       16.777000
 H        12.101000       19.822001       16.014999
 H        13.630000       19.635000       16.329000
 O        22.687000       17.370001       21.870001
 H        23.080000       16.659000       22.452999
 H        22.590000       18.152000       22.485001
 O        22.513000       10.240000       16.650999
 H        22.191999       10.135000       17.591999
 H        22.854000       11.179000       16.622000
 O        10.472000       16.761999       13.933000
 H         9.659000       16.888000       14.501000
 H        10.489000       15.777000       13.761000
 O        24.723000       25.943001       21.674000
 H        23.754000       25.698000       21.658001
 H        24.933001       26.139000       20.716999
 O         8.848000       23.597000       22.834000
 H         8.137000       23.528999       23.534000
 H         8.911000       22.667000       22.471001
 O        25.003000       14.221000       21.629999
 H        25.360001       13.898000       22.506001
 H        25.075001       15.216000       21.698999
 O        17.024000       25.204000       21.412001
 H        17.045000       26.028000       20.846001
 H        16.330999       24.632999       20.973000
 O        21.145000       21.407000       11.963000
 H        20.834000       22.357000       11.979000
 H        21.433001       21.237000       12.905000
 O        22.327999       19.648001       17.502001
 H        21.950001       18.759001       17.242001
 H        22.819000       19.945000       16.683001
 O        31.232000       18.191000       16.282000
 H        30.254999       18.039000       16.436001
 H        31.500000       17.427000       15.695000
 O        20.472000       22.025000       28.044001
 H        19.910000       21.201000       28.114000
 H        21.205999       21.867001       28.705000
 O        29.525000       27.024000       26.006001
 H        29.545000       26.084000       25.664000
 H        30.424999       27.384001       25.760000
 O        12.572000       19.292999       19.563000
 H        12.235000       19.146999       18.632999
 H        13.127000       20.121000       19.486000
 O        28.903999       25.278000       27.929001
 H        29.792999       25.122999       27.500000
 H        28.261000       25.226999       27.165001
 O        18.889999       24.136000        9.158000
 H        18.386000       24.659000        9.845000
 H        19.809000       24.063000        9.544000
 O        22.410999       19.995001       11.347000
 H        22.844000       19.382000       10.686000
 H        22.764999       20.896999       11.099000
 O        15.126000       24.615999        8.500000
 H        14.587000       24.549999        9.339000
 H        14.440000       24.577999        7.774000
 O        19.778000       11.195000       20.586000
 H        19.350000       12.051000       20.295000
 H        20.122000       11.403000       21.502001
 O        14.611000       23.091999       15.349000
 H        14.685000       22.211000       14.880000
 H        15.054000       22.927999       16.230000
 O        16.021999       14.205000       14.111000
 H        15.842000       15.127000       14.455000
 H        16.549999       14.364000       13.276000
 O        30.145000       24.475000       24.408001
 H        30.976999       24.709999       24.910999
 H        29.480000       24.281000       25.129000
 O        19.974001       12.135000       30.934000
 H        19.764999       11.696000       31.808001
 H        20.496000       12.947000       31.197001
 O        27.407000       10.681000       16.792999
 H        28.348000       10.992000       16.659000
 H        27.414000        9.747000       16.436001
 O        20.295000       15.208000       16.437000
 H        20.039000       14.270000       16.202000
 H        20.500000       15.626000       15.552000
 O        20.139999       14.679000       26.490000
 H        19.541000       14.035000       26.966999
 H        20.591999       15.175000       27.231001
 O        18.049000       18.312000       23.379000
 H        17.709000       18.188000       22.447001
 H        17.257000       18.669001       23.874001
 O        23.087000       28.688999       17.079000
 H        22.893999       29.416000       16.421000
 H        22.180000       28.392000       17.375000
 O        17.652000       16.214001       32.063000
 H        17.465000       16.870001       31.332001
 H        17.266001       15.359000       31.716999
 O        10.164000       21.660999       24.153000
 H         9.226000       21.407000       23.917000
 H        10.548000       21.978001       23.285999
 O        20.915001       17.893999       29.118000
 H        20.639999       18.563000       28.429001
 H        21.002001       17.042999       28.600000
 O        17.367001       26.246000       23.017000
 H        16.659000       26.364000       23.712000
 H        18.115999       25.808001       23.514999
 O        21.775999       22.893000       24.986000
 H        21.561001       22.184999       24.313000
 H        21.893000       23.716999       24.431000
 O        25.728001       14.610000       30.886000
 H        26.527000       14.773000       30.306999
 H        25.225000       13.898000       30.398001
 O        25.135000       11.052000       12.970000
 H        25.032000       10.506000       12.139000
 H        25.610001       10.438000       13.599000
 O        21.134001       31.228001       16.691000
 H        21.641001       31.978001       17.115000
 H        20.392000       31.049999       17.337000
 O        15.661000       24.773001       31.063000
 H        15.729000       24.124001       30.306000
 H        15.321000       25.607000       30.629000
 O        25.004999       27.999001       10.964000
 H        25.289000       28.514000       10.155000
 H        24.617001       27.159000       10.584000
 O        23.912001       25.698000       23.933001
 H        23.423000       25.068001       24.535000
 H        24.848000       25.346001       23.931999
 O         7.050000       20.594000       15.260000
 H         6.133000       20.372000       15.590000
 H         7.033000       21.590000       15.169000
 O        10.707000       29.313999       23.961000
 H        10.092000       28.528999       24.042000
 H        10.103000       30.056999       23.672001
 O        20.974001       26.570999       12.738000
 H        21.250000       26.511000       11.779000
 H        20.503000       27.452000       12.792000
 O        19.049999       11.882000       24.746000
 H        18.511999       11.125000       24.374001
 H        19.945000       11.769000       24.315001
 O        16.829000       19.778000       32.330002
 H        16.122999       20.115000       32.952999
 H        17.160000       20.606001       31.878000
 O        27.194000       11.819000       10.655000
 H        27.283001       11.033000       11.266000
 H        26.907000       12.560000       11.262000
 O         9.143000       26.922001       18.014999
 H         9.732000       26.264999       18.486000
 H         8.240000       26.493999       18.047001
 O        24.798000       18.634001       30.721001
 H        24.247999       18.073999       30.101000
 H        25.641001       18.795000       30.208000
 O        19.712999       11.078000        9.455000
 H        19.886000       10.367000       10.137000
 H        19.629000       11.912000       10.000000
 O        19.948999       16.434000       18.233999
 H        20.849001       16.785000       17.978001
 H        19.360001       16.719999       17.479000
 O        26.100000       20.094000       24.860001
 H        25.929001       20.125000       23.875000
 H        27.079000       19.902000       24.923000
 O        28.245001       23.176001       16.400999
 H        29.089001       23.075001       16.927999
 H        27.898001       22.240999       16.330000
 O        23.429001        7.658000       15.115000
 H        23.809000        7.098000       14.379000
 H        22.872000        8.334000       14.633000
 O        10.552000       26.955000       16.715000
 H        10.884000       27.105000       15.784000
 H        10.537000       27.872999       17.111000
 O        16.927000       19.868000       15.041000
 H        17.297001       20.069000       14.134000
 H        17.447001       19.066000       15.335000
 O        13.998000       26.747999       24.004999
 H        13.596000       25.972000       23.518999
 H        13.297000       27.458000       23.937000
 O        14.352000       31.295000       25.837999
 H        13.403000       31.108999       25.586000
 H        14.735000       31.719000       25.018000
 O        25.245001       18.847000       22.052999
 H        24.739000       19.112000       22.874001
 H        24.714001       18.083000       21.686001
 O        18.110001       19.707001       19.148001
 H        18.007999       20.702000       19.124001
 H        17.670000       19.405001       18.302999
 O        18.407000       29.100000       15.428000
 H        17.629000       28.693001       15.907000
 H        18.056999       29.264000       14.506000
 O        21.496000       27.940001       30.924000
 H        22.219000       28.125999       31.589001
 H        21.009001       27.160000       31.316999
 O        21.396000       23.150999       19.398001
 H        22.202999       22.959000       18.839001
 H        21.351000       24.150000       19.414000
 O        32.625000       27.205999       21.159000
 H        32.437000       26.355000       21.649000
 H        31.757000       27.700001       21.202000
 O        28.431999       18.158001       21.287001
 H        28.045000       18.046000       20.372999
 H        27.657000       17.989000       21.895000
 O        21.854000       13.532000       15.062000
 H        22.622000       14.072000       15.406000
 H        21.496000       13.083000       15.881000
 O        24.782000       18.353001       11.187000
 H        25.622999       17.860001       10.966000
 H        24.721001       19.048000       10.471000
 O        18.737000       27.913000       27.854000
 H        19.077999       27.134001       28.379999
 H        18.398001       28.541000       28.555000
 O        18.868999       14.640000       29.839001
 H        17.889000       14.819000       29.924999
 H        19.162001       14.476000       30.781000
 O        15.633000       29.145000       19.667000
 H        16.374001       28.912001       20.297001
 H        14.874000       29.382999       20.273001
 O        17.231001       13.661000       27.274000
 H        17.386000       14.182000       28.113001
 H        17.027000       12.739000       27.603001
 O        22.474001        9.875000       11.065000
 H        22.471001       10.847000       10.828000
 H        23.197001        9.495000       10.488000
 O         9.546000       17.625999       27.368999
 H         9.197000       18.507000       27.049999
 H         9.858000       17.179001       26.530001
 O        29.434999       20.599001       25.289000
 H        29.100000       21.122000       24.506001
 H        29.952000       19.851999       24.871000
 O        16.858999       24.622999       17.952999
 H        16.278000       24.398001       17.171000
 H        17.749001       24.813999       17.538000
 O        22.410999       17.493999        8.922000
 H        22.525000       17.754999        7.964000
 H        23.034000       16.721001        9.033000
 O        27.718000       17.917999       18.028000
 H        27.794001       18.719000       18.621000
 H        26.973000       17.389999       18.437000
 O        19.427999       28.867001       22.791000
 H        20.268000       29.090000       23.285000
 H        18.738001       28.811001       23.513000
 O        10.198000       24.333000       21.375999
 H        10.435000       23.555000       21.958000
 H        10.262000       25.117001       21.992001
 O        22.195999       18.465000       31.448999
 H        22.006001       17.752001       30.774000
 H        22.312000       19.289000       30.895000
 O        19.177000       16.695000       28.844000
 H        18.541000       17.348000       29.254000
 H        18.615999       16.205000       28.177999
 O        14.256000       13.056000       21.586000
 H        14.417000       12.261000       21.002001
 H        13.308000       13.307000       21.386999
 O        19.768999       17.841000       19.874001
 H        20.205999       17.669001       20.757000
 H        18.941999       18.349001       20.115999
 O        19.177000       24.021000       24.409000
 H        18.930000       24.860001       24.895000
 H        19.348000       23.365000       25.143999
 O        13.128000       19.681999       21.718000
 H        12.916000       20.559999       21.288000
 H        13.991000       19.413000       21.292000
 O        24.264999       10.766000       24.493000
 H        24.149000       11.305000       25.327999
 H        24.889000       10.035000       24.768999
 O        15.224000       12.544000       26.191000
 H        14.815000       12.639000       25.284000
 H        15.905000       11.822000       26.066999
 O        16.171000       28.128000       25.166000
 H        15.398000       28.548000       25.641001
 H        16.066000       27.153000       25.360001
 O        16.179001        7.973000       18.837999
 H        15.811000        8.610000       19.516001
 H        17.002001        7.611000       19.277000
 O        14.860000       10.741000       22.955999
 H        14.672000       10.505000       22.002001
 H        14.057000       11.269000       23.231001
 O        20.264000       22.364000        7.812000
 H        20.097000       22.150999        6.850000
 H        21.122999       21.893000        8.013000
 O        14.432000       13.841000       28.500999
 H        14.895000       13.802000       27.615999
 H        13.754000       13.108000       28.445000
 O        23.948999       28.612000       28.421000
 H        23.700001       29.051001       29.285000
 H        23.114000       28.673000       27.875999
 O        24.860001       26.233999       15.593000
 H        24.021000       26.709000       15.327000
 H        24.677999       25.941000       16.531000
 O        13.994000       20.898001       31.066000
 H        14.720000       21.483999       30.705000
 H        14.403000       20.493000       31.884001
 O        19.763000       31.059000       19.445000
 H        18.818001       31.118000       19.767000
 H        20.274000       30.792999       20.261999
 O        15.319000       22.438999       27.337000
 H        15.956000       23.111000       27.716000
 H        14.687000       22.261999       28.091000
 O        22.320000       32.061001       22.179001
 H        22.490999       31.136999       21.839001
 H        22.018999       32.560001       21.367001
 O        27.110001       12.879000       27.941999
 H        26.163000       12.568000       27.865000
 H        27.090000       13.507000       28.719000
 O         9.308000       20.552000       15.865000
 H         8.830000       21.419001       15.729000
 H         9.870000       20.716000       16.674999
 O         8.347000       18.938000       14.159000
 H         9.293000       18.804001       13.864000
 H         8.389000       18.811001       15.149000
 O        24.212999       29.125000       21.625000
 H        23.525000       29.555000       21.040001
 H        25.014000       29.052999       21.031000
 O        15.833000       23.752001       32.917000
 H        14.936000       24.157000       32.743000
 H        15.904000       23.030001       32.229000
 O        16.075001       23.396999       13.754000
 H        16.295000       24.212000       14.289000
 H        16.944000       22.903999       13.705000
 O        20.326000       20.875000       18.698999
 H        20.764999       21.712000       18.372000
 H        20.344999       20.271000       17.903000
 O         9.929000       15.192000       16.898001
 H        10.630000       15.898000       16.997999
 H         9.460000       15.197000       17.781000
 O        16.787001       20.325001       25.209000
 H        16.624001       20.233000       26.191999
 H        17.636999       20.849001       25.159000
 O        17.520000       21.372999       23.048000
 H        16.601000       21.518999       23.412001
 H        17.589001       22.039000       22.305000
 O        23.555000       18.200001       32.700001
 H        23.865000       19.125999       32.915001
 H        23.912001       17.650999       33.456001
 O        23.805000       17.377001       24.653999
 H        22.966000       16.841000       24.563000
 H        24.198000       17.056999       25.514999
 O        26.351000       32.443001       20.268000
 H        25.929001       32.466999       19.362000
 H        26.686001       31.504999       20.348000
 O        29.386999       20.827999       17.230000
 H        28.756001       20.608000       17.974001
 H        29.627001       19.934000       16.851999
 O        14.191000       23.511999       23.343000
 H        14.176000       23.410999       22.348000
 H        14.034000       22.582001       23.676001
 O        15.756000       15.625000       22.698999
 H        15.667000       16.593000       22.933001
 H        15.942000       15.186000       23.577000
 O        20.510000       13.333000       11.927000
 H        20.283001       14.306000       11.925000
 H        20.679001       13.131000       12.892000
 O        24.584999       21.862000       22.891001
 H        24.215000       21.242001       23.583000
 H        24.284000       21.457001       22.027000
 O        19.090000       26.889000       31.259001
 H        18.787001       27.542999       30.565001
 H        19.301001       27.464001       32.049000
 O         7.500000       15.159000       18.426001
 H         8.026000       14.423000       18.851999
 H         7.359000       15.810000       19.171000
 O        27.618000       20.028999       10.797000
 H        28.084000       19.652000        9.998000
 H        26.728001       19.573999       10.788000
 O        11.282000       12.159000       12.611000
 H        11.736000       11.951000       13.478000
 H        10.338000       11.869000       12.764000
 O        15.008000       16.634001        8.329000
 H        14.565000       17.240000        8.990000
 H        14.744000       17.017000        7.444000
 O        29.329000       17.459999       13.545000
 H        29.799000       16.662001       13.921000
 H        29.197001       18.052000       14.340000
 O        11.143000       29.847000       21.993999
 H        11.288000       29.066000       21.386000
 H        11.125000       30.629000       21.372000
 O        12.115000       21.476999       18.277000
 H        13.049000       21.750999       18.052000
 H        11.688000       21.337999       17.382999
 O        22.610001       13.864000       17.469999
 H        22.705000       12.875000       17.358999
 H        22.548000       13.985000       18.461000
 O        29.100000       16.537001       16.520000
 H        28.138000       16.665001       16.280001
 H        29.337000       15.667000       16.089001
 O        12.381000       21.642000       14.486000
 H        13.077000       20.974001       14.750000
 H        11.884000       21.813999       15.337000
 O        31.757000       13.163000       21.010000
 H        31.139000       13.597000       21.665001
 H        32.466000       12.758000       21.587000
 O        21.535999       18.257000       25.615999
 H        21.931999       18.565001       26.481001
 H        22.086000       18.726000       24.924999
 O        20.542999       27.375000       25.907000
 H        19.895000       26.941000       26.533001
 H        21.169001       27.861000       26.514999
 O        13.721000       27.318001       16.382000
 H        12.766000       27.561001       16.555000
 H        14.081000       27.115000       17.292000
 O        11.109000       14.336000       28.726999
 H        10.922000       15.263000       29.051001
 H        11.994000       14.116000       29.138000
 O         7.998000       25.909000       14.509000
 H         7.826000       25.063999       14.002000
 H         8.506000       26.475000       13.860000
 O        25.403999       24.209000       13.944000
 H        25.354000       23.381001       14.502000
 H        26.173000       24.712000       14.336000
 O        24.844000       25.891001       26.881001
 H        25.424000       25.089001       27.018000
 H        24.490999       25.771999       25.952999
 O        14.619000       20.558001       23.171000
 H        15.041000       20.548000       24.077000
 H        13.641000       20.481001       23.365999
 O        27.083000       10.805000       27.618000
 H        27.958000       10.356000       27.438999
 H        26.964001       10.702000       28.606001
 O        23.957001       28.645000       23.912001
 H        23.636000       27.724001       23.693001
 H        24.334000       28.551001       24.833000
 O        21.857000       28.094999       24.745001
 H        21.650999       27.780001       23.818001
 H        22.393000       27.346001       25.134001
 O        14.267000        8.489000       17.721001
 H        14.806000        9.323000       17.839001
 H        14.352000        8.289000       16.745001
 O        15.230000       32.590000       23.368000
 H        15.697000       33.435001       23.629999
 H        15.330000       32.563999       22.374001
 O        20.691999       18.024000       12.789000
 H        20.382999       17.681999       13.676000
 H        21.344000       17.330999       12.483000
 O        20.941000       14.283000       32.481998
 H        20.806999       15.094000       31.913000
 H        21.798000       13.896000       32.144001
 O        20.572001       24.087000       21.759001
 H        20.177000       24.702999       21.077999
 H        21.047001       23.400999       21.209000
 O        27.011000       21.983000       12.689000
 H        26.589001       21.796000       13.576000
 H        27.502001       21.138000       12.478000
 O        27.872999       21.492001       26.173000
 H        28.091999       21.917999       27.051001
 H        26.908001       21.715000       26.035999
 O        18.801001       23.348000       22.702999
 H        18.700001       24.180000       22.157000
 H        19.278999       22.719999       22.089001
 O        28.841999       13.423000       18.021999
 H        28.740000       12.648000       18.646000
 H        28.518999       14.202000       18.559000
 O        25.403999       27.238001       13.894000
 H        25.056999       28.141001       13.642000
 H        25.068001       26.643999       13.164000
 O        13.648000       31.004000       20.523001
 H        14.154000       31.858999       20.403000
 H        13.311000       30.798000       19.605000
 O        14.229000       17.416000       17.143000
 H        13.948000       16.941000       16.309999
 H        15.227000       17.368999       17.117001
 O        15.646000       10.903000       29.695999
 H        16.138000       11.535000       29.097000
 H        16.141001       10.966000       30.562000
 O        19.621000       22.063000       14.117000
 H        19.136999       22.719999       14.695000
 H        19.979000       21.395000       14.768000
 O        30.396999       26.313999       19.886000
 H        30.778999       26.155001       20.796000
 H        30.028000       25.421000       19.625999
 O        19.674000       13.424000       22.478001
 H        18.962999       12.986000       21.929001
 H        20.211000       13.934000       21.806000
 O        18.667999       14.883000       20.010000
 H        18.273001       14.187000       20.610001
 H        19.045000       15.557000       20.645000
 O        17.034000       29.023001        9.488000
 H        17.506001       29.166000       10.358000
 H        17.634001       28.392000        8.995000
 O        22.961000       20.785999       25.712999
 H        22.731001       20.546000       24.770000
 H        22.070999       20.837999       26.166000
 O        26.285999       17.329000       31.212999
 H        26.403999       17.825001       32.073002
 H        26.240999       16.371000       31.497999
 O        27.580000       14.914000       14.672000
 H        27.811001       14.051000       15.121000
 H        27.719000       14.720000       13.701000
 O        23.031000       33.084999       25.667000
 H        23.825001       32.541000       25.398001
 H        22.448999       33.070999       24.854000
 O        15.597000       15.370000       30.674000
 H        15.625000       16.152000       31.297001
 H        15.518000       14.583000       31.285999
 O        16.882999       26.648001       31.638000
 H        16.297001       26.275999       32.356998
 H        16.832001       27.636999       31.780001
 O        19.861000       24.243999       32.585999
 H        19.950001       23.992001       31.622999
 H        20.143999       25.202000       32.605999
 O        15.257000        9.758000       26.764000
 H        14.827000       10.581000       27.136000
 H        16.212000       10.027000       26.639000
 O        21.738001       19.826000       33.280998
 H        22.076000       20.323000       32.483002
 H        20.856001       20.257999       33.472000
 O        10.469000       18.365999       28.899000
 H        11.297000       18.486000       28.351999
 H        10.007000       19.250000       28.826000
 O        19.058001       31.288000       28.229000
 H        18.136999       31.552999       28.514999
 H        19.157000       31.712000       27.329000
 O        15.716000       28.774000       16.471001
 H        15.871000       28.372000       17.372999
 H        14.924000       29.367001       16.610001
 O        15.165000       21.070000       10.861000
 H        14.773000       20.723000       11.713000
 H        14.363000       21.299000       10.309000
 O        18.681999       30.296000       17.929001
 H        18.615999       30.245001       16.933001
 H        19.420000       29.658001       18.149000
 O        25.445999       15.251000       13.605000
 H        25.367001       14.695000       12.778000
 H        25.061001       14.668000       14.320000
 O        25.596001       23.079000       27.017000
 H        24.712999       23.143000       27.480000
 H        26.235001       22.861000       27.754000
 O        23.493999       11.771000       21.542999
 H        23.982000       12.630000       21.693001
 H        24.209999       11.143000       21.237000
 O        26.799999       29.112000       25.566000
 H        26.671000       30.101999       25.514999
 H        26.164000       28.827999       26.284000
 O        26.261000       24.860001       10.711000
 H        26.533001       25.358000       11.534000
 H        27.110001       24.431999       10.402000
 O         9.456000       24.988001       15.424000
 H        10.300000       24.941999       15.958000
 H         8.761000       25.229000       16.101000
 O        21.382999       27.254999       22.046000
 H        20.601999       26.771999       21.650000
 H        22.099001       26.558001       22.080000
 O        14.538000       22.985001       19.830999
 H        13.872000       23.579000       20.283001
 H        15.176000       22.747999       20.563000
 O        12.256000       23.724001       21.874001
 H        12.712000       24.483999       22.336000
 H        12.160000       23.034000       22.591999
 O        17.301001       22.622999       16.712000
 H        16.785999       22.266001       15.933000
 H        16.708000       22.434999       17.493999
 O        27.289000       17.023001       25.562000
 H        27.950001       17.323999       26.250000
 H        26.475000       16.802000       26.098000
 O        12.046000       11.028000       23.486000
 H        12.209000       11.923000       23.900999
 H        11.256000       11.184000       22.893000
 O        12.971000       23.754999       12.904000
 H        13.462000       22.993000       13.326000
 H        12.946000       23.511000       11.935000
 O        18.712999       14.967000       23.853001
 H        18.097000       15.333000       23.155001
 H        18.527000       13.985000       23.839001
 O        17.844000       16.429001       18.517000
 H        17.743999       15.500000       18.162001
 H        16.981001       16.870001       18.271000
 O        26.348000       27.254999       19.389000
 H        26.764000       27.895000       18.743999
 H        26.129000       27.826000       20.180000
 O        19.468000       25.202999       11.319000
 H        19.836000       25.775000       10.587000
 H        20.233000       24.606001       11.560000
 O        24.482000       16.997999       15.713000
 H        23.782000       16.351999       15.411000
 H        23.957001       17.723000       16.159000
 O        22.863001       24.643000       26.438000
 H        23.205000       23.712999       26.305000
 H        23.295000       24.934000       27.291000
 O        16.580999       23.136999        9.018000
 H        15.746000       22.632000        9.233000
 H        16.632999       23.826000        9.740000
 O        12.098000       27.382999       14.371000
 H        11.253000       27.822001       14.067000
 H        12.162000       26.569000       13.793000
 O        18.497000       10.087000       28.018000
 H        19.198000       10.734000       28.318001
 H        17.867001       10.652000       27.485001
 O        23.757999       24.160999       29.452999
 H        24.089001       23.218000       29.493999
 H        24.587000       24.695000       29.288000
 O        21.864000       13.608000       29.368000
 H        21.386000       12.750000       29.559000
 H        21.214001       14.121000       28.809000
 O        29.881001       27.987000       21.278000
 H        30.280001       28.462999       22.059999
 H        28.896000       28.063999       21.433001
 O        14.384000       27.766001       12.575000
 H        13.656000       27.745001       13.259000
 H        15.210000       27.927999       13.114000
 O        17.381001       25.415001       12.307000
 H        16.684999       25.906000       11.784000
 H        17.361000       24.493000       11.919000
 O        18.771000       26.327000       16.968000
 H        19.165001       26.197001       17.878000
 H        19.149000       25.570000       16.436001
 O        26.893999       25.792999       22.690001
 H        27.094999       26.573000       23.283001
 H        26.892000       25.014000       23.316999
 O        29.615000       14.551000       22.455999
 H        29.405001       13.573000       22.445000
 H        29.346001       14.860000       21.544001
 O        14.566000       25.605000       27.424999
 H        14.245000       25.596001       26.478001
 H        15.214000       24.844000       27.462000
 O        20.391001       25.771999       30.066999
 H        21.375000       25.747999       29.888000
 H        20.077999       24.864000       29.790001
 O        23.233000       14.897000       21.299000
 H        22.260000       14.863000       21.070000
 H        23.268999       14.533000       22.230000
 O        13.951000       14.271000       26.024000
 H        13.866000       15.163000       26.468000
 H        13.345000       13.682000       26.559000
 O        28.372999       27.959000       24.650999
 H        27.950001       28.614000       24.025000
 H        28.738001       27.253000       24.044001
 O        25.500000       16.382999       23.895000
 H        25.500000       17.138000       23.239000
 H        24.639000       15.909000       23.709999
 O        28.002001       12.440000       13.022000
 H        28.815001       12.998000       12.852000
 H        28.343000       11.502000       12.958000
 O        18.282000       22.983999       28.431000
 H        17.839001       22.955999       27.535000
 H        17.743999       22.344999       28.980000
 O        15.334000       10.807000       19.052000
 H        16.230000       10.739000       18.613001
 H        15.543000       10.729000       20.027000
 O        26.452999       20.193001       17.035000
 H        27.285000       19.738001       16.718000
 H        26.145000       20.705999       16.233999
 O        10.845000       27.204000       26.438999
 H        11.492000       26.525999       26.787001
 H        10.226000       27.356001       27.209000
 O        23.318001       20.552000       29.910000
 H        23.322001       19.973000       29.094999
 H        24.208000       20.374001       30.330000
 O        12.360000       11.799000       19.506001
 H        11.587000       12.232000       19.969000
 H        12.913000       11.439000       20.257999
 O        10.015000       16.482000       23.582001
 H         9.278000       17.021000       23.174000
 H        10.842000       16.856001       23.162001
 O        24.378000       12.205000       18.326000
 H        24.260000       11.939000       19.283001
 H        24.465000       11.331000       17.848000
 O        27.337999       13.664000       23.454000
 H        28.230000       13.837000       23.870001
 H        27.455000       13.969000       22.509001
 O        16.940001       13.384000       31.601000
 H        17.108999       13.112000       30.653999
 H        17.669001       12.928000       32.111000
 O        32.005001       13.657000       23.624001
 H        32.257000       13.911000       24.558001
 H        31.962999       14.533000       23.145000
 O        28.888000       16.639999       31.052000
 H        28.877001       16.525000       30.058001
 H        28.475000       17.540001       31.190001
 O        30.517000       21.634001       27.971001
 H        30.413000       20.686001       27.671000
 H        29.614000       21.868000       28.330000
 O        29.278000       25.405001       14.874000
 H        30.211000       25.764000       14.901000
 H        28.781000       25.992001       15.513000
 O        28.968000       21.899000       14.796000
 H        28.346001       22.643999       14.559000
 H        28.495001       21.082001       14.467000
 O        14.191000       11.981000       16.094000
 H        14.407000       12.074000       15.122000
 H        14.275000       10.999000       16.261000
 O        17.788000       32.955002       15.832000
 H        17.315001       32.902000       14.953000
 H        18.278999       33.824001       15.785000
 O        14.053000       32.613998       18.037001
 H        14.707000       32.155998       18.638000
 H        13.297000       32.848999       18.646999
 O        15.162000        6.761000       17.608000
 H        16.124001        6.787000       17.336000
 H        15.183000        6.326000       18.507999
 O        23.403000       24.434999       19.289000
 H        22.966000       24.938000       20.034000
 H        24.202999       24.018999       19.721001
 O        11.933000       18.281000        8.865000
 H        12.169000       18.288000        7.894000
 H        11.288000       17.520000        8.945000
 O        17.351999       17.223000       12.875000
 H        17.075001       17.788000       12.098000
 H        16.594000       16.579000       12.980000
 O        20.844999       31.014000       24.506001
 H        21.493999       30.971001       23.747000
 H        21.299000       31.607000       25.171000
 O        16.173000       30.639000       14.579000
 H        17.087000       31.003000       14.755000
 H        15.597000       31.455999       14.545000
 O        26.861000       14.882000       24.781000
 H        27.330999       15.619000       24.295000
 H        27.066000       15.066000       25.742001
 O        20.146999       18.767000        8.642000
 H        19.931999       18.177000        7.865000
 H        19.754000       18.282000        9.423000
 O        16.330000       11.853000       15.027000
 H        16.561001       11.180000       15.729000
 H        16.187000       12.696000       15.546000
 O        19.997999       14.127000       14.342000
 H        19.093000       13.932000       13.964000
 H        20.377001       14.802000       13.709000
 O        15.286000        6.974000       21.690001
 H        14.490000        6.733000       21.134001
 H        15.987000        7.198000       21.013000
 O        22.572001       20.878000       22.775999
 H        22.895000       20.110001       22.224001
 H        21.659000       21.062000       22.413000
 O        13.021000       22.353001        8.271000
 H        13.103000       21.539000        7.695000
 H        12.965000       23.103001        7.612000
 O        29.306000       12.539000       20.816000
 H        29.850000       13.011000       20.122999
 H        29.587000       11.583000       20.726000
 O        27.591000        8.306000       19.715000
 H        26.981001        8.960000       20.162001
 H        28.101999        7.902000       20.473000
 O        14.625000       19.150000       27.877001
 H        14.905000       19.900999       28.474001
 H        14.485000       18.386999       28.507000
 O        15.053000       18.138000       11.940000
 H        14.083000       18.294001       12.126000
 H        15.179000       18.500999       11.017000
 O        20.480000       10.066000       25.281000
 H        20.492001       10.653000       26.090000
 H        20.115000        9.200000       25.622000
 O        16.687000       16.820999       21.152000
 H        17.392000       17.113001       20.506001
 H        16.033001       16.326000       20.580000
 O        20.496000        9.997000       18.857000
 H        19.528999        9.992000       19.113001
 H        20.580000       10.799000       18.267000
 O        25.891001       27.591000       29.791000
 H        25.007999       27.972000       30.066999
 H        26.443001       27.649000       30.622000
 O        10.510000       26.690001       23.469000
 H         9.710000       26.679001       24.068001
 H        11.238000       27.046000       24.054001
 O        25.856001       13.235000       20.209999
 H        26.424999       12.798000       19.514000
 H        25.294001       13.876000       19.686001
 O        10.188000       21.625999       13.254000
 H        10.108000       20.716999       12.847000
 H        10.441000       21.438999       14.203000
 O        13.376000       16.662001       19.239000
 H        12.555000       16.358000       18.757000
 H        13.509000       17.597000       18.910999
 O        19.716000       33.214001       25.226999
 H        20.555000       33.285999       25.766001
 H        18.992001       33.210999       25.917000
 O        21.318001       16.042999       23.167999
 H        20.740000       15.644000       22.455999
 H        21.291000       15.365000       23.902000
 O        29.072001       25.240999       18.007000
 H        29.017000       24.363001       18.482000
 H        28.392000       25.159000       17.278999
 O        16.906000       12.470000       24.437000
 H        16.760000       13.426000       24.688000
 H        17.417999       12.526000       23.580000
 O        11.005000       16.545000       20.975000
 H        11.185000       17.280001       20.320999
 H        11.645000       15.826000       20.704000
 O        19.808001       19.268000       16.414000
 H        18.955000       18.964001       16.837999
 H        19.514999       19.632000       15.530000
 O        19.927999       17.083000       32.305000
 H        19.062000       17.537001       32.092999
 H        20.282000       16.820999       31.407000
 O        21.167000       10.656000       13.563000
 H        22.068001       10.422000       13.199000
 H        20.750999       11.196000       12.831000
 O        25.466999       23.334999       16.931999
 H        25.021999       24.042999       16.382999
 H        25.864000       22.722000       16.249001
 O        11.779000       10.659000       26.429001
 H        11.727000        9.775000       25.964001
 H        11.701000       11.322000       25.684000
 O        20.631001       25.552000       23.948000
 H        20.171000       26.438999       23.917000
 H        21.576000       25.768000       23.702000
 O        31.042999       16.337000       17.275000
 H        31.809999       15.800000       17.627001
 H        30.548000       16.608999       18.100000
 O        12.491000       25.393999       18.555000
 H        11.721000       25.934000       18.215000
 H        12.354000       24.497000       18.136000
 O        25.292000       13.571000       16.035000
 H        25.055000       12.601000       16.090000
 H        24.754000       13.987000       16.768999
 O         9.792000       18.247999       17.146000
 H        10.249000       17.868999       17.951000
 H         9.494000       17.438000       16.641001
 O        17.875999       26.066000       14.738000
 H        18.250999       26.858999       15.218000
 H        17.107000       26.444000       14.222000
 O        13.351000       26.591999       29.896999
 H        13.162000       26.830999       30.850000
 H        12.534000       26.091999       29.613001
 O        12.037000       28.641001       18.184999
 H        12.138000       29.311001       18.919001
 H        11.798000       27.798000       18.666000
 O        13.949000       14.903000       14.018000
 H        13.391000       14.944000       14.846000
 H        13.286000       15.029000       13.280000
 O        24.441000        9.774000       18.896000
 H        24.483999        8.795000       18.698000
 H        23.461000        9.959000       18.959000
 O        24.825001       20.625000       13.710000
 H        24.698999       19.834000       13.111000
 H        24.759001       21.405001       13.087000
 O        30.311001       15.797000       23.908001
 H        30.013000       16.347000       23.128000
 H        31.247999       16.106001       24.070000
 O        14.689000       25.209999       19.062000
 H        14.868000       24.486000       18.395000
 H        15.310000       25.943001       18.787001
 O        25.131001       30.384001       14.211000
 H        25.229000       30.042999       15.146000
 H        24.834999       31.330999       14.335000
 O        26.816999       28.629999       15.931000
 H        26.854000       29.598000       16.177000
 H        27.761999       28.323000       16.039000
 O        25.870001       28.778999       23.497999
 H        26.007000       28.035000       24.152000
 H        26.344999       28.462000       22.677000
 O        21.224001       20.028000       20.919001
 H        20.868000       19.663000       20.059000
 H        21.455000       19.209999       21.445000
 O        23.951000       18.580999       19.459999
 H        24.754999       18.080999       19.139000
 H        23.702999       19.155001       18.679001
 O        14.745000       23.638000       10.984000
 H        14.721000       24.346001       11.689000
 H        14.730000       22.785000       11.506000
 O        20.995001       28.107000       28.584000
 H        21.030001       29.030001       28.201000
 H        20.408001       28.205999       29.388000
 O        21.468000       30.225000       29.577000
 H        22.120001       30.434999       28.848000
 H        20.823999       30.989000       29.546000
 O        24.896000       27.982000       17.389999
 H        25.409000       28.790001       17.677000
 H        24.781000       28.112000       16.405001
 O        10.694000       13.902000       19.257000
 H         9.883000       14.455000       19.452000
 H        11.300000       14.094000       20.028999
 O        12.486000       10.419000       18.077000
 H        11.824000       11.058000       17.686001
 H        12.027000       10.075000       18.896000
 O        21.726000       12.250000       26.674999
 H        21.308001       12.626000       25.848000
 H        21.836000       13.048000       27.268000
 O        20.056000       23.431000       18.132999
 H        19.555000       24.080999       17.561001
 H        19.365999       23.106001       18.780001
 O         8.353000       22.549000       12.108000
 H         7.981000       23.298000       12.656000
 H         8.381000       21.780001       12.747000
 O        23.066000       24.865000       12.477000
 H        23.923000       24.801001       11.966000
 H        22.364000       24.788000       11.770000
 O        21.608999       21.802000       31.334999
 H        20.981001       21.226000       30.812000
 H        22.229000       22.167000       30.639000
 O        11.152000       12.741000       16.476999
 H        10.489000       13.482000       16.374001
 H        11.749000       12.847000       15.682000
 O        16.479000       19.355000       30.032000
 H        15.718000       19.990999       30.156000
 H        17.195000       19.922001       29.624001
 O        16.511000       25.983000       28.209999
 H        15.788000       26.358000       28.790001
 H        17.094999       26.773001       28.021999
 O        11.555000        9.180000       21.059999
 H        11.639000        8.600000       21.868999
 H        12.093000        9.990000       21.292999
 O        29.257999       22.693001       23.080000
 H        28.712999       23.180000       23.763000
 H        28.812000       22.924000       22.215000
 O        15.293000        7.604000       25.247000
 H        15.848000        8.208000       24.676001
 H        14.580000        7.280000       24.625999
 O        16.702999       32.803001       18.354000
 H        16.125999       33.380001       18.931000
 H        17.349001       32.396000       18.999001
 O        13.842000       12.645000       18.127001
 H        14.323000       13.243000       17.486000
 H        12.897000       12.662000       17.801001
 O        14.556000       13.983000        8.009000
 H        14.206000       14.169000        8.926000
 H        14.445000       14.854000        7.532000
 O        27.488001       22.281000       18.419001
 H        26.914000       22.997000       18.815001
 H        27.033001       21.434000       18.693001
 O        20.379999       31.224001       13.120000
 H        20.139000       30.587999       13.853000
 H        20.743000       32.019001       13.608000
 O        28.233000       19.659000       23.417999
 H        27.999001       19.815001       22.459000
 H        28.599001       18.729000       23.424000
 O        27.613001        9.786000       25.228001
 H        28.516001        9.582000       25.605000
 H        27.816000       10.233000       24.357000
 O        26.952999       11.666000       23.287001
 H        27.240000       10.967000       22.632000
 H        26.091000       12.004000       22.908001
 O        17.325001        7.120000       22.392000
 H        17.426001        8.040000       22.770000
 H        17.048000        6.571000       23.181000
 O        11.304000       17.823000       11.869000
 H        11.740000       18.013000       12.749000
 H        10.327000       17.871000       12.075000
 O        30.392000       14.897000       18.837000
 H        30.070999       15.409000       19.634001
 H        31.097000       14.295000       19.212000
 O        20.738001       13.693000       19.174999
 H        19.924999       13.716000       18.593000
 H        20.469000       14.225000       19.976999
 O        22.146000        8.872000       20.606001
 H        22.323000        8.101000       19.993999
 H        21.919001        9.621000       19.983999
 O        17.898001       29.877001       12.282000
 H        18.653000       29.400999       12.733000
 H        17.368999       30.254000       13.042000
 O         9.579000       23.791000       27.080999
 H         9.173000       24.458000       27.705000
 H         8.955000       23.789000       26.299000
 O        18.804001        7.349000       14.881000
 H        18.160000        6.979000       15.551000
 H        19.408001        7.927000       15.429000
 O        17.958000       31.886000       24.386000
 H        18.674999       31.219999       24.183001
 H        18.212999       32.681999       23.837000
 O        25.496000       25.146999       30.905001
 H        25.379000       25.434000       31.855000
 H        26.139000       25.816000       30.533001
 O        22.646999       25.090000       16.393999
 H        22.823999       25.813999       17.061001
 H        22.426001       25.589001       15.557000
 O         7.347000       20.812000       17.781000
 H         7.132000       20.349001       18.639999
 H         7.366000       20.070000       17.111000
 O        15.251000       10.366000       24.889999
 H        14.474000        9.836000       24.551001
 H        16.010000       10.071000       24.309000
 O        13.711000       29.075001       24.740999
 H        12.999000       28.666000       25.312000
 H        13.198000       29.521000       24.007999
 O        12.199000       23.930000       24.988001
 H        12.707000       23.202999       25.448000
 H        12.905000       24.433001       24.490000
 O        30.271000       18.583000       18.903999
 H        29.513000       19.052000       19.356001
 H        30.660999       18.013000       19.627001
 O        18.452000       13.467000       15.734000
 H        18.745001       13.009000       16.573000
 H        18.018999       14.306000       16.061001
 O        27.608000       25.406000       21.006001
 H        28.239000       25.386999       20.230000
 H        26.879000       26.018999       20.702999
 O        29.292999       13.162000       26.802999
 H        28.983999       12.418000       27.395000
 H        28.454000       13.670000       26.605000
 O        25.367001       16.306000       20.113001
 H        25.891001       17.139999       20.287001
 H        24.438000       16.548000       20.392000
 O        30.822001       27.105000       23.424000
 H        31.202000       27.871000       23.943001
 H        30.580999       26.438999       24.129999
 O        23.941000       14.747000       25.295000
 H        24.843000       15.162000       25.416000
 H        23.374001       15.211000       25.975000
 O        13.604000       17.250999       21.190001
 H        12.826000       17.862000       21.334000
 H        13.569000       16.634001       21.976000
 O        18.948999        7.925000       24.760000
 H        19.061001        8.403000       23.889000
 H        17.959000        7.917000       24.900000
 O         8.916000       14.706000       23.337999
 H         9.277000       14.271000       24.163000
 H         8.325000       15.430000       23.693001
 O        26.796000       12.444000       17.183001
 H        27.461000       12.928000       16.615999
 H        26.186001       13.168000       17.503000
 O        13.234000        9.422000       15.555000
 H        12.639000        9.431000       16.358999
 H        12.597000        9.516000       14.790000
 O        16.066000       17.405001       24.927999
 H        15.432000       17.969999       24.400000
 H        15.787000       17.561001       25.875000
 O        18.659000       24.815001       26.775000
 H        19.219000       24.209000       27.339001
 H        18.065001       25.271999       27.437000
 O        10.600000       13.243000       25.686001
 H        11.333000       13.874000       25.431999
 H        10.318000       12.846000       24.812000
 O        10.012000       29.575001       16.524000
 H         9.500000       29.086000       15.818000
 H        10.877000       29.798000       16.075001
 O        23.586000       27.355000       19.055000
 H        24.502001       26.964001       18.966999
 H        23.752001       28.341000       19.077000
 O         9.635000       19.205999       24.799999
 H         9.097000       19.827000       25.370001
 H        10.251000       18.761999       25.452000
 O        14.658000       26.292999       14.899000
 H        14.872000       25.976000       13.975000
 H        15.201000       27.127001       14.994000
 O        13.759000       14.754000       20.145000
 H        13.554000       14.035000       19.482000
 H        14.756000       14.731000       20.219000
 O        12.001000       14.814000       10.866000
 H        12.869000       14.379000       10.626000
 H        11.604000       15.053000        9.980000
 O        18.667999       20.118000        8.220000
 H        17.813999       20.193001        8.735000
 H        18.403999       19.611000        7.399000
 O        23.926001       13.005000       24.371000
 H        23.334000       13.133000       23.575001
 H        24.837999       12.905000       23.974001
 O        23.517000        7.462000       17.110001
 H        24.488001        7.690000       17.188999
 H        23.087999        8.336000       16.879999
 O        26.357000       18.636999       14.769000
 H        26.316000       19.577999       14.433000
 H        27.257999       18.319000       14.472000
 O        21.115999       28.517000       20.056000
 H        20.534000       27.823999       19.631001
 H        21.533001       28.985001       19.277000
 O        27.604000       11.145000       20.198999
 H        27.072001       11.634000       20.889000
 H        28.093000       10.450000       20.726000
 O        11.692000       16.705000       31.094999
 H        10.808000       16.892000       30.666000
 H        12.254000       16.365999       30.340000
 O        17.350000       29.820999       30.443001
 H        17.988001       29.961000       29.686001
 H        17.740000       29.048000       30.941000
 O        16.688999       13.349000       21.122000
 H        16.771999       12.656000       21.837999
 H        16.237000       14.113000       21.584000
 O        15.870000       18.011999       32.581001
 H        15.987000       18.011000       31.587999
 H        16.784000       17.796000       32.925999
 O        18.304001       16.070000       15.111000
 H        18.299000       17.006001       14.760000
 H        17.907000       15.536000       14.364000
 O        18.903000       20.198000       10.486000
 H        19.030001       19.297001       10.901000
 H        19.667000       20.733000       10.846000
 O        22.502001       15.710000       17.837000
 H        22.313000       15.970000       18.784000
 H        22.606001       16.587999       17.368000
 O        29.683001       30.062000       19.830999
 H        29.674000       29.784000       20.792000
 H        28.829000       30.570000       19.724001
 O        26.170000       27.205000       27.204000
 H        26.836000       26.493999       27.429001
 H        25.555000       27.209999       27.993000
 O        16.106001       13.386000       18.542000
 H        16.962000       13.868000       18.728001
 H        15.997000       12.785000       19.334000
 O        18.518000       21.201000       17.289000
 H        18.236000       20.768000       16.433001
 H        19.194000       21.879000       17.000000
 O        27.337999       17.916000       28.534000
 H        27.344999       17.201000       29.232000
 H        27.179001       18.754000       29.056000
 O        22.872000       26.440001        9.393000
 H        22.770000       25.847000       10.192000
 H        22.487000       27.312000        9.696000
 O        26.299999       16.482000       16.316000
 H        25.677000       16.528000       17.097000
 H        25.909000       15.761000       15.744000
 O        25.715000       22.802999       30.761000
 H        26.271999       21.975000       30.708000
 H        26.349001       23.531000       30.500999
 O        24.334999        9.089000       13.169000
 H        24.709999        8.808000       14.052000
 H        24.584000        8.337000       12.558000
 O        19.492001       13.050000       28.693001
 H        18.690001       12.532000       28.990000
 H        19.954000       12.428000       28.062000
 O        15.319000       18.191999       20.811001
 H        15.078000       18.658001       19.959999
 H        16.106001       18.708000       21.148001
 O        10.011000       10.867000       21.045000
 H        10.224000       10.284000       20.261000
 H         9.590000       11.674000       20.629999
 O        29.350000       11.459000       25.226999
 H        30.299999       11.760000       25.311001
 H        29.122999       11.659000       24.275000
 O        12.469000       18.947001       30.412001
 H        11.739000       19.586000       30.172001
 H        12.924000       18.768999       29.540001
 O        27.922001       15.175000       20.298000
 H        27.229000       15.856000       20.059000
 H        27.389000       14.420000       20.680000
 O        16.812000        9.336000       28.302999
 H        16.959999        9.171000       29.278000
 H        16.285999        8.540000       28.006001
 O        15.418000       29.691999       28.827999
 H        16.073000       30.447001       28.799999
 H        15.156000       29.643000       29.792000
 O        27.811001       30.191000       14.603000
 H        27.420000       31.110001       14.628000
 H        27.684000       29.906000       13.653000
 O        11.736000       20.569000        9.793000
 H        11.736000       20.455999        8.800000
 H        10.834000       20.237000       10.069000
 O        15.485000       14.225000       11.483000
 H        15.008000       14.268000       10.605000
 H        16.443001       14.371000       11.237000
 O        12.709000       30.471001       13.919000
 H        11.788000       30.503000       14.307000
 H        13.084000       29.615000       14.272000
 O        31.111000       20.993999       19.931999
 H        31.576000       21.475000       20.674999
 H        30.466999       20.393999       20.407000
 O        24.062000       30.747000       23.377001
 H        24.332001       31.552000       23.905001
 H        24.483000       30.900000       22.483000
 O        18.431000       11.951000       18.139999
 H        17.742001       11.640000       17.485001
 H        17.895000       12.194000       18.948000
 O        16.283001       31.157000       26.622999
 H        16.910000       31.868000       26.305000
 H        16.305000       30.478001       25.889999
 O        18.802999       21.709999       12.232000
 H        18.993999       22.674999       12.415000
 H        17.879999       21.580999       12.593000
 O        11.286000       24.629000       11.978000
 H        10.390000       25.020000       12.189000
 H        11.927000       25.339001       12.271000
 O        25.149000       18.535000       17.370001
 H        25.862000       18.381001       16.686001
 H        24.761000       19.420000       17.110001
 O        19.327999       20.068001       13.042000
 H        18.576000       19.495001       12.717000
 H        19.812000       19.476999       13.687000
 O        21.237000       25.471001       27.521000
 H        21.434999       24.646000       28.049999
 H        20.625000       25.992001       28.115999
 O        12.074000       20.398001       27.066999
 H        12.603000       19.796000       27.664000
 H        11.489000       20.905001       27.700001
 O        13.812000       21.589001       25.906000
 H        12.974000       21.098000       25.669001
 H        14.451000       20.860001       26.150999
 O        25.688000       30.704000       27.010000
 H        25.097000       30.864000       26.221001
 H        25.225000       31.186001       27.754000
 O        13.208000       18.032000       32.433998
 H        14.078000       18.249001       31.993000
 H        12.655000       18.851999       32.282001
 O         7.108000       16.434000       22.080000
 H         7.484000       17.358000       22.011000
 H         7.761000       15.875000       21.566999
 O        14.774000       20.761000       17.474001
 H        14.703000       19.945999       18.048000
 H        15.365000       20.469000       16.722000
 O        25.788000       20.504999       20.424999
 H        24.806000       20.348000       20.318001
 H        26.198999       19.650000       20.108000
 O         9.167000       20.054001       18.677999
 H         8.771000       19.152000       18.849001
 H        10.121000       19.854000       18.455999
 O         9.447000       26.979000       21.497000
 H         9.976000       26.656000       20.712999
 H         8.504000       26.750000       21.254999
 O        18.650000        8.256000       26.646999
 H        19.333000        8.559000       27.311001
 H        18.177999        9.099000       26.392000
 O        15.908000       15.453000       17.743000
 H        15.775000       14.632000       17.188000
 H        15.282000       15.322000       18.511999
 O        11.188000       23.471001       19.184999
 H        11.046000       23.246000       18.221001
 H        10.980000       22.615000       19.659000
 O        29.510000       25.440001       22.025999
 H        28.759001       25.853001       22.540001
 H        29.659000       24.566000       22.487000
 O        15.725000       17.514999       14.579000
 H        15.688000       18.487000       14.813000
 H        16.285000       17.118999       15.307000
 O        18.622999       29.156000       26.325001
 H        18.714001       29.851999       25.612000
 H        18.469999       28.311001       25.812000
 O        21.211000        9.001000       15.334000
 H        20.959999        8.753000       14.399000
 H        21.146999        9.998000       15.339000
 O        19.903999       17.240999       23.554001
 H        19.290001       16.757000       22.931999
 H        19.962000       16.636999       24.348000
 O        21.747999       11.771000       22.639999
 H        21.851999       12.618000       22.120001
 H        21.788000       12.072000       23.593000
 O        24.392000       10.424000       15.644000
 H        25.309999       10.820000       15.617000
 H        23.962000       10.771000       14.811000
 O        10.495000       24.796000       24.754000
 H         9.585000       25.143000       24.981001
 H        11.113000       25.458000       25.177999
 O        25.149000       15.809000       11.203000
 H        24.365000       15.298000       10.851000
 H        24.775999       16.298000       11.992000
 O        22.707001       30.090000       25.598000
 H        22.038000       29.827000       26.292000
 H        23.157000       30.889999       25.995001
