328
xyz format
O 24.367001 14.196 27.806999
H 24.759001 13.864 26.948999
H 25.039 14.862 28.132
O 26.993999 11.521 25.85
H 26.171 11.436 25.288
H 27.117001 12.509 25.940001
O 24.608999 7.817 20.898001
H 25.282 8.251 21.495001
H 23.750999 7.908 21.403999
O 22.513 10.24 16.650999
H 22.191999 10.135 17.591999
H 22.854 11.179 16.622
O 25.003 14.221 21.629999
H 25.360001 13.898 22.506001
H 25.075001 15.216 21.698999
O 27.407 10.681 16.792999
H 28.348 10.992 16.659
H 27.414 9.747 16.436001
O 20.915001 17.893999 29.118
H 20.639999 18.563 28.429001
H 21.002001 17.042999 28.6
O 25.135 11.052 12.97
H 25.032 10.506 12.139
H 25.610001 10.438 13.599
O 27.194 11.819 10.655
H 27.283001 11.033 11.266
H 26.907 12.56 11.262
O 19.712999 11.078 9.455
H 19.886 10.367 10.137
H 19.629 11.912 10.0
O 23.429001 7.658 15.115
H 23.809 7.098 14.379
H 22.872 8.334 14.633
O 21.854 13.532 15.062
H 22.622 14.072 15.406
H 21.496 13.083 15.881
O 22.474001 9.875 11.065
H 22.471001 10.847 10.828
H 23.197001 9.495 10.488
O 24.264999 10.766 24.493
H 24.149 11.305 25.327999
H 24.889 10.035 24.768999
O 27.110001 12.879 27.941999
H 26.163 12.568 27.865
H 27.09 13.507 28.719
O 23.805 17.377001 24.653999
H 22.966 16.841 24.563
H 24.198 17.056999 25.514999
O 22.610001 13.864 17.469999
H 22.705 12.875 17.358999
H 22.548 13.985 18.461
O 0.26500000000000057 13.163 21.01
H 31.139 13.597 21.665001
H 0.9740000000000002 12.758 21.587
O 21.535999 18.257 25.615999
H 21.931999 18.565001 26.481001
H 22.086 18.726 24.924999
O 27.083 10.805 27.618
H 27.958 10.356 27.438999
H 26.964001 10.702 28.606001
O 28.841999 13.423 18.021999
H 28.74 12.648 18.646
H 28.518999 14.202 18.559
O 27.58 14.914 14.672
H 27.811001 14.051 15.121
H 27.719 14.72 13.701
O 23.493999 11.771 21.542999
H 23.982 12.63 21.693001
H 24.209999 11.143 21.237
O 27.289 17.023001 25.562
H 27.950001 17.323999 26.25
H 26.475 16.802 26.098
O 29.615 14.551 22.455999
H 29.405001 13.573 22.445
H 29.346001 14.86 21.544001
O 23.233 14.897 21.299
H 22.26 14.863 21.07
H 23.268999 14.533 22.23
O 25.5 16.382999 23.895
H 25.5 17.138 23.239
H 24.639 15.909 23.709999
O 28.002001 12.44 13.022
H 28.815001 12.998 12.852
H 28.343 11.502 12.958
O 24.378 12.205 18.326
H 24.26 11.939 19.283001
H 24.465 11.331 17.848
O 27.337999 13.664 23.454
H 28.23 13.837 23.870001
H 27.455 13.969 22.509001
O 0.5130009999999992 13.657 23.624001
H 0.764999999999997 13.911 24.558001
H 0.47099899999999906 14.533 23.145
O 26.861 14.882 24.781
H 27.330999 15.619 24.295
H 27.066 15.066 25.742001
O 29.306 12.539 20.816
H 29.85 13.011 20.122999
H 29.587 11.583 20.726
O 27.591 8.306 19.715
H 26.981001 8.96 20.162001
H 28.101999 7.902 20.473
O 25.856001 13.235 20.209999
H 26.424999 12.798 19.514
H 25.294001 13.876 19.686001
O 21.167 10.656 13.563
H 22.068001 10.422 13.199
H 20.750999 11.196 12.831
O 31.042999 16.337 17.275
H 0.31799900000000036 15.8 17.627001
H 30.548 16.608999 18.1
O 25.292 13.571 16.035
H 25.055 12.601 16.09
H 24.754 13.987 16.768999
O 24.441 9.774 18.896
H 24.483999 8.795 18.698
H 23.461 9.959 18.959
O 30.311001 15.797 23.908001
H 30.013 16.347 23.128
H 31.247999 16.106001 24.07
O 27.613001 9.786 25.228001
H 28.516001 9.582 25.605
H 27.816 10.233 24.357
O 26.952999 11.666 23.287001
H 27.24 10.967 22.632
H 26.091 12.004 22.908001
O 30.392 14.897 18.837
H 30.070999 15.409 19.634001
H 31.097 14.295 19.212
O 22.146 8.872 20.606001
H 22.323 8.101 19.993999
H 21.919001 9.621 19.983999
O 18.804001 7.349 14.881
H 18.16 6.979 15.551
H 19.408001 7.927 15.429
O 29.292999 13.162 26.802999
H 28.983999 12.418 27.395
H 28.454 13.67 26.605
O 23.941 14.747 25.295
H 24.843 15.162 25.416
H 23.374001 15.211 25.975
O 26.796 12.444 17.183001
H 27.461 12.928 16.615999
H 26.186001 13.168 17.503
O 23.926001 13.005 24.371
H 23.334 13.133 23.575001
H 24.837999 12.905 23.974001
O 23.517 7.462 17.110001
H 24.488001 7.69 17.188999
H 23.087999 8.336 16.879999
O 27.604 11.145 20.198999
H 27.072001 11.634 20.889
H 28.093 10.45 20.726
O 24.334999 9.089 13.169
H 24.709999 8.808 14.052
H 24.584 8.337 12.558
O 29.35 11.459 25.226999
H 30.299999 11.76 25.311001
H 29.122999 11.659 24.275
O 27.922001 15.175 20.298
H 27.389 14.42 20.68
O 21.211 9.001 15.334
H 20.959999 8.753 14.399
H 21.146999 9.998 15.339
O 24.392 10.424 15.644
H 25.309999 10.82 15.617
H 23.962 10.771 14.811
O 17.915001 12.852 12.888
H 18.247 13.543 12.247
H 17.565001 12.128 12.294
O 24.774 20.639999 26.518999
H 24.292999 19.797001 26.761
O 22.195999 12.513 19.542
H 21.895 11.768 20.136999
H 22.528 13.206 20.181
O 26.688999 19.632999 27.143999
H 25.881001 19.41 27.688999
H 27.282 20.115 27.789
O 19.438 10.285 16.542
H 18.832001 10.543 15.79
H 18.857 9.725 17.132
O 22.687 17.370001 21.870001
H 23.08 16.659 22.452999
H 22.59 18.152 22.485001
O 31.232 18.191 16.282
H 30.254999 18.039 16.436001
H 0.007999999999999119 17.427 15.695
O 20.472 22.025 28.044001
H 19.91 21.201 28.114
H 21.205999 21.867001 28.705
O 19.778 11.195 20.586
H 19.35 12.051 20.295
H 20.122 11.403 21.502001
O 20.295 15.208 16.437
H 20.039 14.27 16.202
H 20.5 15.626 15.552
O 20.139999 14.679 26.49
H 19.541 14.035 26.966999
H 20.591999 15.175 27.231001
H 21.561001 22.184999 24.313
O 25.728001 14.61 30.886
H 26.527 14.773 30.306999
H 25.225 13.898 30.398001
H 19.945 11.769 24.315001
H 24.247999 18.073999 30.101
O 19.948999 16.434 18.233999
H 20.849001 16.785 17.978001
O 26.1 20.094 24.860001
H 25.929001 20.125 23.875
H 27.079 19.902 24.923
O 25.245001 18.847 22.052999
H 24.739 19.112 22.874001
H 24.714001 18.083 21.686001
O 28.431999 18.158001 21.287001
H 28.045 18.046 20.372999
H 27.657 17.989 21.895
O 18.868999 14.64 29.839001
H 19.162001 14.476 30.781
O 29.434999 20.599001 25.289
H 29.952 19.851999 24.871
O 27.718 17.917999 18.028
H 27.794001 18.719 18.621
H 26.973 17.389999 18.437
O 22.195999 18.465 31.448999
H 22.006001 17.752001 30.774
H 22.312 19.289 30.895
O 19.177 16.695 28.844
H 18.541 17.348 29.254
H 18.615999 16.205 28.177999
H 20.205999 17.669001 20.757
O 16.179001 7.973 18.837999
H 17.002001 7.611 19.277
H 29.627001 19.934 16.851999
O 20.51 13.333 11.927
H 20.283001 14.306 11.925
H 20.679001 13.131 12.892
H 24.215 21.242001 23.583
O 29.329 17.459999 13.545
H 29.799 16.662001 13.921
H 29.197001 18.052 14.34
O 29.1 16.537001 16.52
H 28.138 16.665001 16.280001
H 29.337 15.667 16.089001
H 20.806999 15.094 0.29100000000000037
O 19.674 13.424 22.478001
H 18.962999 12.986 21.929001
H 20.211 13.934 21.806
O 18.667999 14.883 20.01
H 19.045 15.557 20.645
O 22.961 20.785999 25.712999
H 22.731001 20.546 24.77
H 22.070999 20.837999 26.166
H 26.240999 16.371 31.497999
O 25.445999 15.251 13.605
H 25.367001 14.695 12.778
H 25.061001 14.668 14.32
O 24.482 16.997999 15.713
H 23.782 16.351999 15.411
H 23.957001 17.723 16.159
O 21.864 13.608 29.368
H 21.386 12.75 29.559
H 21.214001 14.121 28.809
O 23.318001 20.552 29.91
H 23.322001 19.973 29.094999
H 28.877001 16.525 30.058001
O 15.162 6.761 17.608
H 16.124001 6.787 17.336
O 19.997999 14.127 14.342
H 19.093 13.932 13.964
H 20.377001 14.802 13.709
O 22.572001 20.878 22.775999
H 22.895 20.110001 22.224001
H 21.659 21.062 22.413
O 20.48 10.066 25.281
H 20.492001 10.653 26.09
O 20.496 9.997 18.857
H 19.528999 9.992 19.113001
H 20.58 10.799 18.267
O 21.318001 16.042999 23.167999
H 20.74 15.644 22.455999
H 21.291 15.365 23.902
O 19.927999 17.083 0.6829999999999998
H 19.062 17.537001 0.47099899999999906
H 20.282 16.820999 31.407
H 21.455 19.209999 21.445
H 24.754999 18.080999 19.139
O 21.726 12.25 26.674999
H 21.308001 12.626 25.848
H 21.836 13.048 27.268
H 20.981001 21.226 30.812
H 17.195 19.922001 29.624001
O 28.233 19.659 23.417999
H 27.999001 19.815001 22.459
H 28.599001 18.729 23.424
O 20.738001 13.693 19.174999
H 19.924999 13.716 18.593
H 20.469 14.225 19.976999
O 30.271 18.583 18.903999
H 29.513 19.052 19.356001
H 30.660999 18.013 19.627001
O 18.452 13.467 15.734
H 18.745001 13.009 16.573
H 18.018999 14.306 16.061001
O 25.367001 16.306 20.113001
H 25.891001 17.139999 20.287001
H 24.438 16.548 20.392
O 26.357 18.636999 14.769
H 27.257999 18.319 14.472
O 22.502001 15.71 17.837
H 22.313 15.97 18.784
H 22.606001 16.587999 17.368
O 27.337999 17.916 28.534
H 27.344999 17.201 29.232
H 27.179001 18.754 29.056
O 26.299999 16.482 16.316
H 25.677 16.528 17.097
H 25.909 15.761 15.744
H 27.229 15.856 20.059
O 18.431 11.951 18.139999
O 19.903999 17.240999 23.554001
H 19.290001 16.757 22.931999
H 19.962 16.636999 24.348
O 21.747999 11.771 22.639999
H 21.851999 12.618 22.120001
H 21.788 12.072 23.593
O 25.149 15.809 11.203
H 24.365 15.298 10.851
H 24.775999 16.298 11.992
