24

O 4.328 2.304 3.474 0.8252061589838977
H 4.497 3.244 3.742 -0.4271295801378421
H 4.43 1.696 4.35 -0.40102887898675454
O 2.219 0.644 1.861 0.844545469310221
H 3.077 1.16 2.05 -0.43401563802115617
H 2.334 0.194 0.998 -0.4168591953328805
O 1.931 0.887 5.438 0.8359881227434514
H 0.977 1.078 5.518 -0.4195633032901297
H 2.159 1.427 4.67 -0.41928907881920896
O 2.09 6.411 4.034 0.8551600847154077
H 2.251 7.061 3.221 -0.41282448068212885
H 2.038 6.974 4.686 -0.43534516038116267
O 4.796 6.289 2.468 0.8084977439883163
H 5.302 5.754 3.006 -0.39868293752227557
H 3.954 6.163 2.97 -0.4039891269861341
O 1.013 4.011 1.277 0.81649355546217
H 0.912 4.46 2.12 -0.4051984176036434
H 1.148 3.08 1.543 -0.41043846269576734
O 7.786 1.861 3.266 0.8005382671802685
H 7.087 2.14 2.689 -0.40691240977676146
H 7.672 0.828 3.184 -0.3941766756567555
O 4.841 4.153 5.929 0.8185635596797827
H 4.557 4.879 6.269 -0.41437108839821324
H 4.329 3.571 6.472 -0.4051685277726659
