1032
 generated by VMD
 O        10.727000       10.734000       10.915000
 H        10.309000       11.595000       10.915000
 H        11.708000       10.415000       10.915000
 O         2.250000        2.750000        9.961000
 H         2.600000        2.580000       10.881000
 H         1.370000        2.300000        9.841000
 O         5.690000       12.751000       11.651000
 H         4.760000       12.681000       11.281000
 H         5.800000       13.641000       12.091000
 O        15.551000       15.111000        7.030000
 H        14.981000       14.951000        7.840000
 H        14.961000       15.211000        6.230000
 O        17.431000        6.180000        8.560000
 H        17.761000        7.120000        8.560000
 H        17.941000        5.640000        9.220000
 O        11.351000        7.030000        7.170000
 H        11.921000        7.810000        6.920000
 H        10.751000        7.290000        7.930000
 O        17.551001        6.070000        2.310000
 H        17.431000        5.940000        1.320000
 H        17.250999        5.260000        2.800000
 O         7.680000       11.441000       10.231000
 H         6.900000       11.611000       10.831000
 H         8.020000       12.311000        9.871000
 O         8.500000        7.980000       18.231001
 H         8.460000        8.740000       18.881001
 H         8.720000        8.340000       17.320999
 O         6.850000       10.121000        6.650000
 H         7.540000        9.961000        7.350000
 H         6.120000       10.691000        7.030000
 O         6.860000       11.611000       18.031000
 H         7.460000       12.401000       18.171000
 H         6.000000       11.921000       17.621000
 O         3.350000       14.351000       10.611000
 H         2.570000       14.041000       10.081000
 H         3.930000       14.931000       10.041000
 O        14.601000       15.051000       13.391000
 H        14.841000       15.991000       13.651000
 H        14.441000       14.511000       14.211000
 O         4.380000        3.920000       14.991000
 H         5.200000        3.360000       15.081000
 H         3.570000        3.340000       15.031000
 O         2.310000       17.131001        4.830000
 H         2.650000       17.900999        5.370000
 H         2.750000       17.131001        3.930000
 O        11.271000       13.411000       16.900999
 H        11.741000       13.411000       17.781000
 H        10.791000       12.541000       16.791000
 O         2.300000       14.341000        5.380000
 H         2.040000       15.301000        5.380000
 H         1.590000       13.801000        5.830000
 O         2.400000       10.911000        8.860000
 H         2.540000       10.071000        9.380000
 H         1.850000       11.551000        9.410000
 O         6.200000       17.861000       14.391000
 H         5.280000       17.691000       14.741000
 H         6.480000       18.781000       14.651000
 O         6.060000        9.641000        1.230000
 H         6.130000       10.481000        0.690000
 H         6.520000        9.771000        2.110000
 O        15.941000        1.140000       14.801000
 H        15.761000        1.810000       14.081000
 H        15.911000        1.600000       15.691000
 O        18.421000       17.671000        3.590000
 H        18.961000       17.381001        4.390000
 H        18.721001       18.570999        3.300000
 O        16.891001        9.220000        6.120000
 H        17.841000        8.930000        6.200000
 H        16.811001        9.870000        5.370000
 O        16.410999       11.081000        4.320000
 H        17.271000       11.101000        3.800000
 H        16.551001       11.551000        5.200000
 O         1.130000        7.370000       15.971000
 H         2.010000        7.240000       16.421000
 H         1.000000        8.340000       15.751000
 O         6.130000       13.651000        7.260000
 H         5.640000       12.781000        7.350000
 H         5.900000       14.081000        6.390000
 O        12.931000       12.281000       14.231000
 H        13.301000       11.551000       13.651000
 H        13.451000       12.331000       15.081000
 O         8.090000        0.040000        5.020000
 H         8.490000        0.950000        4.930000
 H         7.090000        0.120000        5.080000
 O        15.251000        9.991000        1.900000
 H        14.621000        9.231000        2.030000
 H        15.731000       10.171000        2.760000
 O        11.871000       17.921000       16.160999
 H        12.111000       18.521000       15.401000
 H        11.941000       16.971001       15.861000
 O         3.170000        2.510000       18.011000
 H         3.880000        3.220000       18.070999
 H         2.290000        2.900000       18.291000
 O        14.661000       14.171000        9.531000
 H        14.071000       14.231000       10.331000
 H        14.511000       13.291000        9.071000
 O        16.671000       17.141001        5.720000
 H        16.261000       16.910999        4.840000
 H        16.490999       16.400999        6.370000
 O         5.980000        7.290000        2.700000
 H         6.220000        7.980000        2.020000
 H         5.200000        7.620000        3.240000
 O        12.811000        3.450000        9.441000
 H        11.951000        2.950000        9.311000
 H        13.431000        2.910000       10.001000
 O        15.761000       16.621000        3.070000
 H        16.650999       17.080999        3.100000
 H        15.551000       16.381001        2.120000
 O         8.070000        6.050000       14.651000
 H         7.600000        6.020000       15.541000
 H         7.560000        5.500000       13.991000
 O        13.941000        4.690000       16.740999
 H        13.741000        5.120000       17.621000
 H        14.721000        4.070000       16.830999
 O         9.731000        8.900000       15.721000
 H        10.191000        8.060000       15.431000
 H         9.171000        9.240000       14.971000
 O         9.911000        4.100000       12.421000
 H         9.141000        4.440000       12.961000
 H         9.571000        3.590000       11.631000
 O        10.411000        7.010000        4.290000
 H        10.671000        6.970000        5.250000
 H         9.561000        6.500000        4.150000
 O         0.760000        8.110000        7.890000
 H         1.750000        7.990000        7.980000
 H         0.520000        9.060000        8.100000
 O         8.650000        3.480000        1.950000
 H         9.240000        4.110000        1.460000
 H         8.840000        2.540000        1.660000
 O        17.191000        5.850000       18.311001
 H        16.931000        6.740000       17.951000
 H        17.171000        5.170000       17.580999
 O        13.621000       11.441000        5.450000
 H        14.451000       11.151000        4.970000
 H        13.131000       12.111000        4.890000
 O         5.500000        1.960000        8.850000
 H         5.450000        1.910000        9.850000
 H         5.520000        2.920000        8.560000
 O        10.081000       14.561000        4.770000
 H         9.621000       15.281000        4.250000
 H        10.041000       14.761000        5.750000
 O         3.510000       18.011000        8.530000
 H         4.010000       17.150999        8.590000
 H         4.160000       18.781000        8.500000
 O        17.951000       10.661000        8.730000
 H        17.330999       10.511000        7.970000
 H        17.431000       10.771000        9.580000
 O        12.271000       15.501000       15.061000
 H        12.331000       14.731000       15.701000
 H        11.751000       15.241000       14.261000
 O         3.210000        9.431000        2.420000
 H         4.030000        9.821000        2.000000
 H         2.940000        8.611000        1.930000
 O        14.581000        7.350000        7.280000
 H        14.531000        6.700000        8.030000
 H        15.381000        7.940000        7.410000
 O         4.610000       12.661000       17.271000
 H         4.110000       12.671000       16.410999
 H         3.980000       12.481000       18.031000
 O        11.111000       17.761000        2.370000
 H        10.511000       17.141001        2.870000
 H        11.421000       17.320999        1.520000
 O         2.020000        2.850000       14.981000
 H         1.220000        3.450000       14.851000
 H         1.920000        2.360000       15.841000
 O        16.320999       13.771000        0.810000
 H        16.000999       14.711000        0.710000
 H        15.561000       13.141000        0.690000
 O         4.640000       17.431000        3.230000
 H         4.970000       17.820999        4.090000
 H         5.400000       17.361000        2.580000
 O        14.001000        1.070000        4.260000
 H        13.761000        0.700000        3.360000
 H        14.991000        1.230000        4.300000
 O         2.490000       17.851000       12.411000
 H         3.060000       17.201000       12.911000
 H         2.330000       17.521000       11.481000
 O         9.401000       16.981001        9.040000
 H        10.201000       16.410999        9.250000
 H         8.911000       16.580999        8.270000
 O         3.820000        7.000000        4.800000
 H         4.270000        6.100000        4.770000
 H         2.880000        6.890000        5.130000
 O        15.471000        2.220000       17.291000
 H        15.421000        2.590000       18.211000
 H        14.751000        1.530000       17.171000
 O         6.140000        1.220000        1.170000
 H         7.120000        1.000000        1.240000
 H         5.830000        1.050000        0.240000
 O         7.810000        2.640000       17.490999
 H         8.480000        2.030000       17.921000
 H         7.080000        2.830000       18.141001
 O         8.880000       15.141000       11.951000
 H         8.650000       14.891000       11.011000
 H         9.490000       14.451000       12.341000
 O        13.511000        5.900000       14.331000
 H        13.791000        5.470000       15.181000
 H        13.761000        6.860000       14.341000
 O         8.030000       14.021000        9.240000
 H         8.930000       14.161000        8.820000
 H         7.320000       14.041000        8.530000
 O         9.220000        5.030000        8.990000
 H         8.970000        4.940000        8.030000
 H         9.700000        4.210000        9.300000
 O         5.390000        0.640000        5.120000
 H         4.580000        0.650000        5.700000
 H         5.420000        1.470000        4.570000
 O        14.341000       11.881000        0.410000
 H        14.661000       11.121000        0.980000
 H        13.421000       12.151000        0.710000
 O         9.351000        2.360000        4.800000
 H         8.871000        2.770000        4.020000
 H        10.341000        2.340000        4.610000
 O        10.761000        6.830000       14.641000
 H         9.961000        6.220000       14.671000
 H        11.571000        6.300000       14.401000
 O        12.271000       15.701000        7.930000
 H        12.481000       16.441000        7.280000
 H        12.951000       15.701000        8.660000
 O         4.590000       11.521000        7.410000
 H         3.880000       11.251000        8.060000
 H         4.330000       11.241000        6.480000
 O        12.711000       17.971001        5.910000
 H        13.151000       18.611000        5.270000
 H        12.211000       18.490999        6.610000
 O        10.321000        5.490000        0.160000
 H         9.911000        6.310000       -0.230000
 H        10.961000        5.750000        0.890000
 O         5.610000        2.220000       11.471000
 H         5.990000        1.380000       11.841000
 H         4.730000        2.410000       11.911000
 O         8.660000        4.540000        6.420000
 H         8.340000        5.260000        5.800000
 H         8.900000        3.730000        5.890000
 O        10.171000        0.390000        7.530000
 H         9.451000        0.440000        6.840000
 H         9.931000       -0.300000        8.220000
 O        14.291000       11.731000        8.670000
 H        13.741000       10.891000        8.600000
 H        14.551000       12.021000        7.750000
 O        14.661000        5.900000        9.921000
 H        14.361000        4.950000        9.991000
 H        15.391000        6.060000       10.581000
 O        18.570999        8.330000        3.770000
 H        18.990999        7.690000        4.410000
 H        18.191000        7.820000        2.990000
 O         4.880000       13.851000        1.740000
 H         4.010000       13.701000        2.210000
 H         4.710000       14.111000        0.790000
 O        16.641001       12.801000        6.570000
 H        17.631001       12.881000        6.710000
 H        16.191000       13.641000        6.880000
 O        13.901000        5.750000        0.780000
 H        13.361000        5.540000        1.590000
 H        14.811000        5.340000        0.870000
 O         5.270000        2.560000        3.280000
 H         5.540000        1.970000        2.530000
 H         5.270000        3.510000        2.970000
 O        17.541000       12.231000       15.881000
 H        18.451000       11.841000       15.751000
 H        17.621000       13.191000       16.121000
 O        10.641000       13.471000       13.401000
 H         9.841000       13.241000       13.951000
 H        11.471000       13.211000       13.891000
 O        15.921000       16.291000       16.250999
 H        16.191000       16.631001       15.351000
 H        16.711000       15.911000       16.711000
 O        16.381001       10.991000       10.791000
 H        16.431000       11.801000       11.381000
 H        15.521000       11.011000       10.281000
 O         9.150000        0.890000       14.021000
 H         9.400000        0.690000       13.071000
 H         9.870000        1.450000       14.441000
 O         9.801000       11.161000       17.191000
 H         8.811000       11.221000       17.291000
 H        10.031000       10.361000       16.631001
 O         7.050000       10.501000        3.680000
 H         6.910000       10.571000        4.670000
 H         7.890000        9.991000        3.500000
 O         4.100000        8.130000       12.511000
 H         4.960000        8.250000       13.011000
 H         3.680000        7.260000       12.781000
 O        12.741000        3.860000       12.621000
 H        12.951000        4.600000       13.261000
 H        11.851000        4.030000       12.191000
 O         0.640000       15.641000       13.311000
 H         0.180000       16.461000       12.971000
 H         1.620000       15.831000       13.401000
 O         3.670000       11.001000        5.010000
 H         3.600000       11.831000        4.450000
 H         3.710000       10.201000        4.410000
 O         5.660000        5.370000        8.650000
 H         5.780000        6.030000        7.910000
 H         6.120000        5.710000        9.480000
 O        12.521000       13.481000        3.880000
 H        13.021000       14.251000        4.280000
 H        11.571000       13.501000        4.200000
 O        12.721000       14.451000       11.421000
 H        13.191000       14.581000       12.291000
 H        12.061000       13.711000       11.511000
 O        15.821000        6.390000        4.720000
 H        15.511000        7.000000        5.450000
 H        16.320999        6.910000        4.030000
 O         3.540000       15.101000       13.291000
 H         3.330000       14.661000       12.421000
 H         4.510000       15.361000       13.321000
 O         4.020000        7.510000       15.981000
 H         4.700000        8.060000       15.511000
 H         4.420000        6.630000       16.250999
 O        15.871000        7.790000       16.701000
 H        14.951000        8.170000       16.650999
 H        16.471001        8.260000       16.051001
 O        10.131000        1.050000       17.701000
 H        10.191000        1.900000       17.181000
 H        10.451000        0.290000       17.131001
 O         5.040000        0.500000       17.400999
 H         4.620000       -0.070000       16.701000
 H         4.380000        1.190000       17.721001
 O         5.730000        8.700000       10.291000
 H         6.170000        9.590000       10.201000
 H         5.100000        8.700000       11.061000
 O        13.601000        8.620000       10.451000
 H        12.851000        8.620000        9.791000
 H        13.971000        7.700000       10.541000
 O        12.091000        5.250000        2.750000
 H        12.221000        4.410000        3.290000
 H        11.801000        5.990000        3.350000
 O         3.070000        2.130000       12.311000
 H         2.840000        2.500000       13.211000
 H         2.770000        1.180000       12.251000
 O         7.320000        6.340000       10.641000
 H         7.910000        6.080000        9.881000
 H         7.040000        7.300000       10.531000
 O        17.281000        9.351000       18.541000
 H        16.820999        9.281000       17.650999
 H        16.660999        9.791000       19.201000
 O         3.070000        0.630000        6.180000
 H         2.960000        1.570000        6.510000
 H         3.020000        0.000000        6.950000
 O        16.221001        3.670000        3.740000
 H        16.240999        2.910000        4.380000
 H        15.741000        4.440000        4.140000
 O        10.231000        7.660000        9.661000
 H        10.381000        7.870000       10.621000
 H         9.931000        6.710000        9.571000
 O         9.801000       15.731000       17.000999
 H         9.601000       16.171000       16.121000
 H        10.191000       14.821000       16.841000
 O        18.591000       15.181000       16.051001
 H        18.731001       15.451000       15.101000
 H        19.421000       15.401000       16.580999
 O         3.500000        8.980000       18.041000
 H         4.260000        9.420000       18.521000
 H         3.850000        8.510000       17.221001
 O        15.401000        2.740000        1.250000
 H        14.791000        1.990000        1.480000
 H        15.621000        3.260000        2.080000
 O        13.031000        8.380000        0.420000
 H        13.371000        7.450000        0.570000
 H        13.211000        8.650000       -0.530000
 O        10.681000       13.331000        8.490000
 H        10.751000       12.491000        7.940000
 H        11.301000       14.021000        8.130000
 O         3.190000        8.100000        9.491000
 H         4.120000        8.460000        9.541000
 H         3.130000        7.250000       10.011000
 O         3.390000        5.090000       10.061000
 H         2.870000        4.260000        9.891000
 H         4.160000        5.140000        9.421000
 O        11.381000        3.800000       16.781000
 H        10.931000        4.430000       17.421000
 H        12.311000        4.110000       16.611000
 O        11.601000        2.070000       14.771000
 H        11.601000        2.710000       15.541000
 H        11.881000        2.550000       13.941000
 O         0.880000       18.011000        9.270000
 H         0.460000       17.150999        9.000000
 H         1.820000       18.041000        8.930000
 O         5.040000       15.681000        9.100000
 H         5.700000       16.421000        9.190000
 H         5.480000       14.891000        8.680000
 O        10.021000        7.960000       12.381000
 H        10.431000        7.640000       13.241000
 H         9.061000        7.690000       12.351000
 O         1.890000        5.200000       17.221001
 H         2.480000        4.800000       16.521000
 H         1.310000        5.910000       16.811001
 O        13.691000        9.501000       16.601000
 H        14.081000       10.391000       16.801001
 H        13.791000        9.301000       15.631000
 O         8.150000        5.720000        3.250000
 H         8.220000        4.830000        2.790000
 H         7.210000        6.060000        3.170000
 O        16.570999        6.040000       12.061000
 H        16.191000        5.350000       12.681000
 H        17.391001        5.680000       11.621000
 O         2.520000       15.641000       17.441000
 H         2.220000       16.211000       18.201000
 H         2.450000       14.671000       17.701000
 O         6.710000        4.640000       12.691000
 H         6.370000        3.750000       12.391000
 H         6.970000        5.180000       11.891000
 O         9.300000       16.781000       14.651000
 H         9.060000       16.601000       13.701000
 H         9.600000       17.721001       14.751000
 O         4.730000        5.000000        1.910000
 H         5.340000        5.800000        1.950000
 H         3.780000        5.310000        1.980000
 O         1.590000       11.371000       14.661000
 H         1.810000       10.761000       15.421000
 H         1.690000       10.881000       13.801000
 O        13.471000       10.591000       12.341000
 H        13.711000        9.961000       11.601000
 H        12.571000       10.991000       12.161000
 O        13.021000        8.550000        3.090000
 H        12.161000        8.240000        3.510000
 H        12.981000        8.410000        2.100000
 O        17.591000       17.471001       11.541000
 H        18.201000       17.771000       10.811000
 H        17.211000       16.580999       11.321000
 O        12.521000       17.311001       11.281000
 H        13.361000       17.361000       10.741000
 H        12.291000       16.351000       11.461000
 O         0.830000       12.581000       10.221000
 H         0.780000       12.571000       11.221000
 H         0.000000       12.171000        9.841000
 O         6.880000       16.621000       17.160999
 H         6.320000       17.431000       17.250999
 H         7.400000       16.660999       16.301001
 O         9.030000        0.860000        1.330000
 H         9.540000        0.870000        0.470000
 H         9.590000        0.440000        2.040000
 O        17.261000        1.350000        5.230000
 H        17.990999        1.180000        4.560000
 H        16.951000        0.480000        5.610000
 O        13.881000       15.731000        4.770000
 H        14.551000       15.851000        4.030000
 H        13.481000       16.621000        5.000000
 O        12.801000        9.270000        6.720000
 H        13.401000        8.460000        6.740000
 H        13.201000        9.960000        6.120000
 O         8.300000       12.731000       14.221000
 H         8.250000       13.061000       15.171000
 H         7.440000       12.921000       13.761000
 O         6.720000       16.160999        1.540000
 H         6.810000       16.261000        0.550000
 H         6.320000       15.271000        1.750000
 O        16.500999       17.201000       13.941000
 H        17.031000       17.301001       13.101000
 H        16.231001       18.101000       14.281000
 O        18.410999        1.750000        9.631000
 H        18.801001        0.900000        9.271000
 H        17.431000        1.770000        9.441000
 O         2.630000        3.260000        7.200000
 H         1.840000        3.770000        6.860000
 H         2.540000        3.110000        8.180000
 O        11.941000       16.121000        0.310000
 H        12.001000       15.191000        0.680000
 H        11.351000       16.121000       -0.490000
 O         8.220000       10.021000       13.721000
 H         8.620000       10.011000       12.801000
 H         8.320000       10.941000       14.121000
 O         9.160000        9.100000        2.910000
 H         9.790000        9.480000        2.230000
 H         9.560000        8.270000        3.300000
 O        15.041000       16.070999        0.440000
 H        14.121000       16.441000        0.510000
 H        15.421000       16.271000       -0.460000
 O         3.720000       12.881000       14.901000
 H         3.590000       13.811000       14.561000
 H         2.880000       12.361000       14.771000
 O        16.141001       12.921000       12.891000
 H        16.740999       12.951000       13.691000
 H        15.391000       13.561000       13.021000
 O        10.391000       10.981000        6.960000
 H         9.691000       10.511000        7.500000
 H        10.981000       10.301000        6.530000
 O        10.141000        2.360000        9.711000
 H        10.061000        2.000000        8.781000
 H        10.121000        1.600000       10.361000
 O         5.900000       14.871000        4.910000
 H         6.320000       14.291000        4.210000
 H         5.460000       15.661000        4.470000
 O        17.091000        3.850000       13.811000
 H        17.820999        4.540000       13.851000
 H        17.371000        3.100000       13.221000
 O         2.550000       13.481000        2.900000
 H         1.590000       13.491000        2.630000
 H         2.670000       14.011000        3.740000
 O         1.050000       10.131000       17.261000
 H         0.280000        9.801000       17.801001
 H         1.900000        9.831000       17.681000
 O         6.720000        2.030000       14.891000
 H         7.620000        1.870000       14.491000
 H         6.800000        2.080000       15.881000
 O        14.401000        8.560000       13.981000
 H        13.831000        9.080000       13.351000
 H        15.361000        8.680000       13.741000
 O        11.831000       13.351000        1.190000
 H        10.841000       13.241000        1.210000
 H        12.171000       13.501000        2.120000
 O         6.130000        8.420000       14.311000
 H         6.690000        9.230000       14.141000
 H         6.720000        7.620000       14.341000
 O        14.931000       17.671000        9.591000
 H        15.261000       18.311001        8.901000
 H        15.591000       17.611000       10.341000
 O         7.160000        5.650000       17.080999
 H         7.350000        6.300000       17.820999
 H         7.760000        4.850000       17.171000
 O        14.501000       12.201000       16.330999
 H        14.411000       12.101000       17.320999
 H        15.461000       12.131000       16.070999
 O         3.900000       17.410999       15.601000
 H         2.990000       17.820999       15.581000
 H         3.830000       16.471001       15.921000
 O        16.740999        8.830000       12.541000
 H        16.471001        7.940000       12.171000
 H        16.750999        9.510000       11.811000
 O        12.251000        3.250000        4.490000
 H        12.901000        2.510000        4.380000
 H        12.451000        3.750000        5.330000
 O         5.940000        7.450000        6.520000
 H         6.440000        8.300000        6.330000
 H         5.060000        7.470000        6.040000
 O        17.771000        3.420000       16.421000
 H        17.601000        3.730000       15.481000
 H        16.931000        3.050000       16.801001
 O        17.301001        9.341000       15.171000
 H        17.681000       10.251000       15.321000
 H        17.221001        9.171000       14.181000
 O         8.590000       13.741000        0.160000
 H         8.130000       13.891000        1.040000
 H         9.030000       14.591000       -0.140000
 O         6.610000       17.900999        9.531000
 H         6.150000       18.781000        9.401000
 H         7.600000       18.021000        9.461000
 O         8.590000        9.561000        8.610000
 H         9.130000        8.871000        9.090000
 H         8.270000       10.251000        9.270000
 O        10.831000        9.841000        0.870000
 H        10.601000       10.371000        0.050000
 H        11.641000        9.281000        0.680000
 O        18.611000       15.691000        8.510000
 H        17.900999       15.571000        7.810000
 H        18.621000       14.901000        9.110000
 O         2.210000       13.141000       18.441000
 H         1.560000       12.411000       18.231001
 H         2.250000       13.281000       19.421000
 O         0.790000       12.401000        6.530000
 H         0.780000       11.931000        7.410000
 H         1.610000       12.121000        6.020000
 O         6.720000       13.911000       16.240999
 H         5.940000       13.411000       16.621000
 H         6.690000       14.861000       16.551001
 O        18.240999        1.920000       12.271000
 H        18.201000        1.020000       12.711000
 H        18.271000        1.810000       11.281000
 O         4.280000        4.240000        5.200000
 H         4.580000        3.520000        4.580000
 H         3.890000        3.840000        6.030000
 O        17.051001       14.871000       11.041000
 H        16.121000       14.621000       10.771000
 H        17.311001       14.371000       11.861000
 O         3.170000        5.470000       12.801000
 H         3.550000        4.880000       13.521000
 H         3.570000        5.210000       11.921000
 O         8.120000       15.861000        6.870000
 H         8.440000       15.961000        5.930000
 H         7.330000       15.241000        6.890000
 O        14.241000        2.140000       11.121000
 H        14.761000        1.490000       11.671000
 H        13.751000        2.770000       11.731000
 O        10.011000        0.340000       11.541000
 H         9.381000       -0.380000       11.231000
 H        10.941000       -0.020000       11.541000
 O         7.700000       13.301000        3.010000
 H         7.240000       12.431000        3.180000
 H         8.610000       13.271000        3.420000
 O         6.180000       15.671000       12.841000
 H         6.130000       16.490999       13.411000
 H         7.070000       15.641000       12.391000
 O        13.521000        0.520000        1.680000
 H        13.871000        0.110000        0.840000
 H        12.621000        0.140000        1.880000
 O        13.001000        4.530000        6.910000
 H        12.411000        5.330000        6.950000
 H        13.151000        4.180000        7.840000
 O        15.931000        2.210000        8.820000
 H        15.091000        2.200000        9.360000
 H        15.951000        3.040000        8.260000
 O         0.390000       10.771000        3.000000
 H         1.380000       10.661000        2.910000
 H        -0.010000        9.911000        3.320000
 O         8.750000       16.461000        3.370000
 H         7.980000       16.111000        2.830000
 H         8.430000       17.171000        3.990000
 O        17.551001        6.070000       20.931000
 H        17.431000        5.940000       19.941000
 H        17.250999        5.260000       21.421000
 O         6.060000        9.641000       19.851000
 H         6.130000       10.481000       19.311001
 H         6.520000        9.771000       20.731001
 O        18.421000       17.671000        0.381000
 H        18.961000       17.381001        1.181000
 H        18.721001       18.570999        0.091000
 O         0.270000       15.961000       19.791000
 H         0.080000       15.001000       20.000999
 H        -0.060000       16.541000       20.541000
 O        16.410999       11.081000        1.111000
 H        17.271000       11.101000        0.591000
 H        16.551001       11.551000        1.991000
 O        15.251000        9.991000       20.521000
 H        14.621000        9.231000       20.650999
 H        15.731000       10.171000       21.381001
 O         5.980000        7.290000       21.320999
 H         6.220000        7.980000       20.641001
 H         5.200000        7.620000       21.861000
 O         8.650000        3.480000       20.570999
 H         9.240000        4.110000       20.080999
 H         8.840000        2.540000       20.281000
 O        10.081000       14.561000        1.561000
 H         9.621000       15.281000        1.041000
 H        10.041000       14.761000        2.541000
 O         3.210000        9.431000       21.041000
 H         4.030000        9.821000       20.621000
 H         2.940000        8.611000       20.551001
 O        16.320999       13.771000       19.431000
 H        16.000999       14.711000       19.330999
 H        15.561000       13.141000       19.311001
 O         4.640000       17.431000        0.021000
 H         4.970000       17.820999        0.881000
 H         5.400000       17.361000       -0.629000
 O         6.140000        1.220000       19.791000
 H         7.120000        1.000000       19.861000
 H         5.830000        1.050000       18.861000
 O        14.341000       11.881000       19.031000
 H        14.661000       11.121000       19.601000
 H        13.421000       12.151000       19.330999
 O         2.970000        0.350000       20.330999
 H         3.460000        1.190000       20.121000
 H         3.590000       -0.300000       20.781000
 O        10.321000        5.490000       18.781000
 H         9.911000        6.310000       18.391001
 H        10.961000        5.750000       19.511000
 O        18.570999        8.330000        0.561000
 H        18.990999        7.690000        1.201000
 H        18.191000        7.820000       -0.219000
 O         4.880000       13.851000       20.361000
 H         4.010000       13.701000       20.830999
 H         4.710000       14.111000       19.410999
 O        13.901000        5.750000       19.400999
 H        13.361000        5.540000       20.211000
 H        14.811000        5.340000       19.490999
 O        15.821000        6.390000        1.511000
 H        15.511000        7.000000        2.241000
 H        16.320999        6.910000        0.821000
 O        15.401000        2.740000       19.871000
 H        14.791000        1.990000       20.101000
 H        15.621000        3.260000       20.701000
 O        13.031000        8.380000       19.041000
 H        13.371000        7.450000       19.191000
 H        13.211000        8.650000       18.091000
 O         8.150000        5.720000        0.041000
 H         8.220000        4.830000       -0.419000
 H         7.210000        6.060000       -0.039000
 O         4.730000        5.000000       20.531000
 H         5.340000        5.800000       20.570999
 H         3.780000        5.310000       20.601000
 O        17.261000        1.350000        2.021000
 H        17.990999        1.180000        1.351000
 H        16.951000        0.480000        2.401000
 O         6.720000       16.160999       20.160999
 H         6.810000       16.261000       19.171000
 H         6.320000       15.271000       20.371000
 O        11.941000       16.121000       18.931000
 H        12.001000       15.191000       19.301001
 H        11.351000       16.121000       18.131001
 O         9.160000        9.100000       21.531000
 H         9.790000        9.480000       20.851000
 H         9.560000        8.270000       21.921000
 O        15.041000       16.070999       19.061001
 H        14.121000       16.441000       19.131001
 H        15.421000       16.271000       18.160999
 O         2.550000       13.481000       21.521000
 H         1.590000       13.491000       21.250999
 H         2.670000       14.011000       22.361000
 O         0.750000        3.450000       18.951000
 H        -0.170000        3.170000       18.660999
 H         1.060000        4.220000       18.391001
 O        11.831000       13.351000       19.811001
 H        10.841000       13.241000       19.830999
 H        12.171000       13.501000       20.740999
 O         8.590000       13.741000       18.781000
 H         8.130000       13.891000       19.660999
 H         9.030000       14.591000       18.481001
 O        10.831000        9.841000       19.490999
 H        10.601000       10.371000       18.671000
 H        11.641000        9.281000       19.301001
 O        13.521000        0.520000       20.301001
 H        13.871000        0.110000       19.461000
 H        12.621000        0.140000       20.500999
 O         0.390000       10.771000       21.621000
 H         1.380000       10.661000       21.531000
 H        -0.010000        9.911000       21.941000
 O         8.750000       16.461000        0.161000
 H         7.980000       16.111000       -0.379000
 H         8.430000       17.171000        0.781000
 O         4.380000        0.711000       14.991000
 H         5.200000        0.151000       15.081000
 H         3.570000        0.131000       15.031000
 O        15.941000       19.761000       14.801000
 H        15.761000       20.431000       14.081000
 H        15.911000       20.221001       15.691000
 O         8.090000       18.660999        5.020000
 H         8.490000       19.570999        4.930000
 H         7.090000       18.740999        5.080000
 O        12.811000        0.241000        9.441000
 H        11.951000       -0.259000        9.311000
 H        13.431000       -0.299000       10.001000
 O         5.500000       20.580999        8.850000
 H         5.450000       20.531000        9.850000
 H         5.520000       21.541000        8.560000
 O         2.020000       21.471001       14.981000
 H         1.220000       22.070999       14.851000
 H         1.920000       20.981001       15.841000
 O        14.001000       19.691000        4.260000
 H        13.761000       19.320999        3.360000
 H        14.991000       19.851000        4.300000
 O        15.471000       20.841000       17.291000
 H        15.421000       21.211000       18.211000
 H        14.751000       20.150999       17.171000
 O         6.140000       19.841000        1.170000
 H         7.120000       19.621000        1.240000
 H         5.830000       19.671000        0.240000
 O         7.810000       21.261000       17.490999
 H         8.480000       20.650999       17.921000
 H         7.080000       21.451000       18.141001
 O         5.390000       19.261000        5.120000
 H         4.580000       19.271000        5.700000
 H         5.420000       20.091000        4.570000
 O         5.610000       20.841000       11.471000
 H         5.990000       20.000999       11.841000
 H         4.730000       21.031000       11.911000
 O        10.171000       19.011000        7.530000
 H         9.451000       19.061001        6.840000
 H         9.931000       18.320999        8.220000
 O         5.270000       21.181000        3.280000
 H         5.540000       20.591000        2.530000
 H         5.270000       22.131001        2.970000
 O         9.150000       19.511000       14.021000
 H         9.400000       19.311001       13.071000
 H         9.870000       20.070999       14.441000
 O        12.741000        0.651000       12.621000
 H        12.951000        1.391000       13.261000
 H        11.851000        0.821000       12.191000
 O        10.131000       19.671000       17.701000
 H        10.191000       20.521000       17.181000
 H        10.451000       18.910999       17.131001
 O         5.040000       19.121000       17.400999
 H         4.620000       18.551001       16.701000
 H         4.380000       19.811001       17.721001
 O         3.070000       20.750999       12.311000
 H         2.840000       21.121000       13.211000
 H         2.770000       19.801001       12.251000
 O         3.070000       19.250999        6.180000
 H         2.960000       20.191000        6.510000
 H         3.020000       18.621000        6.950000
 O        15.401000       21.361000        1.250000
 H        14.791000       20.611000        1.480000
 H        15.621000       21.881001        2.080000
 O        11.601000       20.691000       14.771000
 H        11.601000       21.330999       15.541000
 H        11.881000       21.171000       13.941000
 O         9.030000       19.481001        1.330000
 H         9.540000       19.490999        0.470000
 H         9.590000       19.061001        2.040000
 O        17.261000       19.971001        5.230000
 H        17.990999       19.801001        4.560000
 H        16.951000       19.101000        5.610000
 O        18.410999       20.371000        9.631000
 H        18.801001       19.521000        9.271000
 H        17.431000       20.391001        9.441000
 O         6.720000       20.650999       14.891000
 H         7.620000       20.490999       14.491000
 H         6.800000       20.701000       15.881000
 O        12.251000        0.041000        4.490000
 H        12.901000       -0.699000        4.380000
 H        12.451000        0.541000        5.330000
 O        17.771000        0.211000       16.421000
 H        17.601000        0.521000       15.481000
 H        16.931000       -0.159000       16.801001
 O        18.240999       20.541000       12.271000
 H        18.201000       19.641001       12.711000
 H        18.271000       20.431000       11.281000
 O        14.241000       20.761000       11.121000
 H        14.761000       20.111000       11.671000
 H        13.751000       21.391001       11.731000
 O        10.011000       18.961000       11.541000
 H         9.381000       18.240999       11.231000
 H        10.941000       18.601000       11.541000
 O        13.521000       19.141001        1.680000
 H        13.871000       18.731001        0.840000
 H        12.621000       18.761000        1.880000
 O        13.001000        1.321000        6.910000
 H        12.411000        2.121000        6.950000
 H        13.151000        0.971000        7.840000
 O        15.931000       20.830999        8.820000
 H        15.091000       20.820999        9.360000
 H        15.951000       21.660999        8.260000
 O         8.650000        0.271000       20.570999
 H         9.240000        0.901000       20.080999
 H         8.840000       -0.669000       20.281000
 O         6.140000       19.841000       19.791000
 H         7.120000       19.621000       19.861000
 H         5.830000       19.671000       18.861000
 O         2.970000       18.971001       20.330999
 H         3.460000       19.811001       20.121000
 H         3.590000       18.320999       20.781000
 O        15.401000       21.361000       19.871000
 H        14.791000       20.611000       20.101000
 H        15.621000       21.881001       20.701000
 O        17.261000       19.971001        2.021000
 H        17.990999       19.801001        1.351000
 H        16.951000       19.101000        2.401000
 O         0.750000        0.241000       18.951000
 H        -0.170000       -0.039000       18.660999
 H         1.060000        1.011000       18.391001
 O        13.521000       19.141001       20.301001
 H        13.871000       18.731001       19.461000
 H        12.621000       18.761000       20.500999
 O        20.921000        6.280000        1.130000
 H        19.990999        6.260000        1.500000
 H        20.931000        5.890000        0.210000
 O        20.871000        2.750000        9.961000
 H        21.221001        2.580000       10.881000
 H        19.990999        2.300000        9.841000
 O        18.811001        3.680000        6.470000
 H        17.990999        4.110000        6.860000
 H        18.531000        2.950000        5.840000
 O         0.141000       14.351000       10.611000
 H        -0.639000       14.041000       10.081000
 H         0.721000       14.931000       10.041000
 O        20.931000       17.131001        4.830000
 H        21.271000       17.900999        5.370000
 H        21.371000       17.131001        3.930000
 O        20.921000       14.341000        5.380000
 H        20.660999       15.301000        5.380000
 H        20.211000       13.801000        5.830000
 O        21.021000       10.911000        8.860000
 H        21.160999       10.071000        9.380000
 H        20.471001       11.551000        9.410000
 O        19.841000        6.430000        5.630000
 H        19.391001        5.550000        5.800000
 H        19.830999        6.970000        6.470000
 O        19.750999        7.370000       15.971000
 H        20.631001        7.240000       16.421000
 H        19.621000        8.340000       15.751000
 O        20.591000        9.761000       12.641000
 H        21.481001        9.311000       12.501000
 H        19.861000        9.111000       12.451000
 O        19.381001        8.110000        7.890000
 H        20.371000        7.990000        7.980000
 H        19.141001        9.060000        8.100000
 O        19.921000       18.211000       15.711000
 H        19.820999       18.061001       16.701000
 H        19.061001       18.570999       15.351000
 O        20.641001        2.850000       14.981000
 H        19.841000        3.450000       14.851000
 H        20.541000        2.360000       15.841000
 O         0.611000        7.000000        4.800000
 H         1.061000        6.100000        4.770000
 H        -0.329000        6.890000        5.130000
 O        19.400999        5.560000       13.861000
 H        20.320999        5.550000       13.451000
 H        19.341000        6.300000       14.531000
 O         0.891000        8.130000       12.511000
 H         1.751000        8.250000       13.011000
 H         0.471000        7.260000       12.781000
 O        19.261000       15.641000       13.311000
 H        18.801001       16.461000       12.971000
 H        20.240999       15.831000       13.401000
 O        21.691000        2.130000       12.311000
 H        21.461000        2.500000       13.211000
 H        21.391001        1.180000       12.251000
 O        18.990999       13.101000       12.821000
 H        19.521000       12.611000       13.501000
 H        19.211000       14.081000       12.871000
 O        21.811001        8.100000        9.491000
 H        22.740999        8.460000        9.541000
 H        21.750999        7.250000       10.011000
 O        18.701000       13.261000        2.000000
 H        17.771000       13.471000        1.690000
 H        18.801001       12.271000        2.130000
 O        19.500999       18.011000        9.270000
 H        19.080999       17.150999        9.000000
 H        20.441000       18.041000        8.930000
 O         1.831000       15.681000        9.100000
 H         2.491000       16.421000        9.190000
 H         2.271000       14.891000        8.680000
 O        19.021000        5.440000       11.141000
 H        19.871000        5.110000       10.731000
 H        19.150999        5.590000       12.121000
 O        20.511000        5.200000       17.221001
 H        21.101000        4.800000       16.521000
 H        19.931000        5.910000       16.811001
 O        21.141001       15.641000       17.441000
 H        20.841000       16.211000       18.201000
 H        21.070999       14.671000       17.701000
 O         1.521000        5.000000        1.910000
 H         2.131000        5.800000        1.950000
 H         0.571000        5.310000        1.980000
 O        20.211000       11.371000       14.661000
 H        20.431000       10.761000       15.421000
 H        20.311001       10.881000       13.801000
 O        19.451000       12.581000       10.221000
 H        19.400999       12.571000       11.221000
 H        18.621000       12.171000        9.841000
 O        19.921000       17.941000       18.511000
 H        19.511000       17.201000       19.041000
 H        20.561001       18.451000       19.091000
 O        21.250999        3.260000        7.200000
 H        20.461000        3.770000        6.860000
 H        21.160999        3.110000        8.180000
 O         0.511000       12.881000       14.901000
 H         0.381000       13.811000       14.561000
 H        -0.329000       12.361000       14.771000
 O        21.171000       13.481000        2.900000
 H        20.211000       13.491000        2.630000
 H        21.291000       14.011000        3.740000
 O        19.671000       10.131000       17.261000
 H        18.900999        9.801000       17.801001
 H        20.521000        9.831000       17.681000
 O        19.371000        3.450000        0.330000
 H        18.451000        3.170000        0.040000
 H        19.681000        4.220000       -0.230000
 O        19.341000        1.660000        3.180000
 H        19.171000        2.490000        2.640000
 H        20.240999        1.290000        2.960000
 O         0.691000       17.410999       15.601000
 H        -0.219000       17.820999       15.581000
 H         0.621000       16.471001       15.921000
 O        19.410999       12.401000        6.530000
 H        19.400999       11.931000        7.410000
 H        20.231001       12.121000        6.020000
 O         1.071000        4.240000        5.200000
 H         1.371000        3.520000        4.580000
 H         0.681000        3.840000        6.030000
 O        21.791000        5.470000       12.801000
 H        22.171000        4.880000       13.521000
 H        22.191000        5.210000       11.921000
 O        19.011000       10.771000        3.000000
 H        20.000999       10.661000        2.910000
 H        18.611000        9.911000        3.320000
 O        20.921000        6.280000       19.750999
 H        19.990999        6.260000       20.121000
 H        20.931000        5.890000       18.830999
 O        20.931000       17.131001        1.621000
 H        21.271000       17.900999        2.161000
 H        21.371000       17.131001        0.721000
 O        18.891001       15.961000       19.791000
 H        18.701000       15.001000       20.000999
 H        18.561001       16.541000       20.541000
 O         1.431000       17.431000        0.021000
 H         1.761000       17.820999        0.881000
 H         2.191000       17.361000       -0.629000
 O         2.181000        0.640000        1.911000
 H         1.371000        0.650000        2.491000
 H         2.211000        1.470000        1.361000
 O         2.061000        2.560000        0.071000
 H         2.331000        1.970000       -0.679000
 H         2.061000        3.510000       -0.239000
 O        18.701000       13.261000       20.621000
 H        17.771000       13.471000       20.311001
 H        18.801001       12.271000       20.750999
 O         1.521000        5.000000       20.531000
 H         2.131000        5.800000       20.570999
 H         0.571000        5.310000       20.601000
 O        21.171000       13.481000       21.521000
 H        20.211000       13.491000       21.250999
 H        21.291000       14.011000       22.361000
 O        19.371000        3.450000       18.951000
 H        18.451000        3.170000       18.660999
 H        19.681000        4.220000       18.391001
 O        19.011000       10.771000       21.621000
 H        20.000999       10.661000       21.531000
 H        18.611000        9.911000       21.941000
 O        20.871000       21.371000        9.961000
 H        21.221001       21.201000       10.881000
 H        19.990999       20.921000        9.841000
 O        18.811001        0.471000        6.470000
 H        17.990999        0.901000        6.860000
 H        18.531000       -0.259000        5.840000
 O         2.291000       20.580999        8.850000
 H         2.241000       20.531000        9.850000
 H         2.311000       21.541000        8.560000
 O        20.641001       21.471001       14.981000
 H        19.841000       22.070999       14.851000
 H        20.541000       20.981001       15.841000
 O         1.831000       19.121000       17.400999
 H         1.411000       18.551001       16.701000
 H         1.171000       19.811001       17.721001
 O        21.691000       20.750999       12.311000
 H        21.461000       21.121000       13.211000
 H        21.391001       19.801001       12.251000
 O        21.691000       19.250999        6.180000
 H        21.580999       20.191000        6.510000
 H        21.641001       18.621000        6.950000
 O        21.250999        0.051000        7.200000
 H        20.461000        0.561000        6.860000
 H        21.160999       -0.099000        8.180000
 O        19.371000        0.241000        0.330000
 H        18.451000       -0.039000        0.040000
 H        19.681000        1.011000       -0.230000
 O        19.341000       20.281000        3.180000
 H        19.171000       21.111000        2.640000
 H        20.240999       19.910999        2.960000
 O         1.071000        1.031000        5.200000
 H         1.371000        0.311000        4.580000
 H         0.681000        0.631000        6.030000
 O         2.181000       19.261000        1.911000
 H         1.371000       19.271000        2.491000
 H         2.211000       20.091000        1.361000
 O        21.591000       18.971001       20.330999
 H        22.080999       19.811001       20.121000
 H        22.211000       18.320999       20.781000
 O         2.061000       21.181000        0.071000
 H         2.331000       20.591000       -0.679000
 H         2.061000       22.131001       -0.239000
 O        19.371000        0.241000       18.951000
 H        18.451000       -0.039000       18.660999
 H        19.681000        1.011000       18.391001
