24

O 4.328 2.304 3.474 0.6952057770621516
H 4.497 3.244 3.742 -0.3623002674140764
H 4.43 1.696 4.35 -0.33748702981752143
O 2.219 0.644 1.861 0.7020635956553458
H 3.077 1.16 2.05 -0.360654434593797
H 2.334 0.194 0.998 -0.3508280350700934
O 1.931 0.887 5.438 0.7045023656739229
H 0.977 1.078 5.518 -0.3531999752457551
H 2.159 1.427 4.67 -0.3576766601546034
O 2.09 6.411 4.034 0.7271618920365943
H 2.251 7.061 3.221 -0.34292176227352267
H 2.038 6.974 4.686 -0.37009150834747584
O 4.796 6.289 2.468 0.6974499557713645
H 5.302 5.754 3.006 -0.3435156248941833
H 3.954 6.163 2.97 -0.3456353814378791
O 1.013 4.011 1.277 0.6926925774214092
H 0.912 4.46 2.12 -0.3441059276604884
H 1.148 3.08 1.543 -0.3465210099459526
O 7.786 1.861 3.266 0.6801142286046231
H 7.087 2.14 2.689 -0.34987835028013914
H 7.672 0.828 3.184 -0.3317776080911622
O 4.841 4.153 5.929 0.6959215166317967
H 4.557 4.879 6.269 -0.3571586893239713
H 4.329 3.571 6.472 -0.34135964430660604
24

O 4.32806210950734 2.3047758584059292 3.4737610646837553 0.6952641043878689
H 4.491861146368412 3.24288265767119 3.74472418195249 -0.3627129174915119
H 4.434073252143575 1.6972680087450298 4.348920745876323 -0.3372867308005816
O 2.2186141981213297 0.6441005064581824 1.8608720360646507 0.7006517712488112
H 3.0788281501659416 1.164120754743879 2.0495873901635115 -0.36027082076940264
H 2.336987382194898 0.18912651804969494 0.9980400530396638 -0.35074679199970604
O 1.931507970517764 0.8878430000821386 5.4375887789423025 0.7051535130853277
H 0.9745388918920668 1.0746462468377276 5.526055407039308 -0.3533503964381809
H 2.16290434364348 1.422693350789412 4.669382979454506 -0.3583080487881971
O 2.0883509076390094 6.410941842311008 4.033793649598065 0.7265378804792069
H 2.257406884444689 7.0687594358877375 3.2154988801537208 -0.3412223336897918
H 2.043052952332424 6.975407245859869 4.689177511455281 -0.3699146840332438
O 4.796364986060019 6.287193293932196 2.4673897142482444 0.6973815533332739
H 5.301061027630935 5.757026800564171 3.013353975113428 -0.34345886184095753
H 3.955572170219208 6.165234908670137 2.969868479531467 -0.345674088870368
O 1.0138342298426788 4.01195777436557 1.2778463336790256 0.6920184947491359
H 0.9107180066765064 4.4512251735837625 2.119079641335518 -0.344866725406316
H 1.1524528364297804 3.077445182407682 1.549791498586803 -0.345009474996976
O 7.784972450791255 1.8619616852432987 3.267100133091315 0.679484725876732
H 7.086621590139871 2.138519325555085 2.6871682941285906 -0.3495194285747748
H 7.671785580312373 0.8290094724078938 3.177004415909705 -0.3315363971750177
O 4.840912897627534 4.151913317121455 5.928167781372249 0.6956497928843339
H 4.561436280005752 4.879295311133292 6.267058180208725 -0.3573753971837569
H 4.326605073262677 3.565432013807324 6.470914384734668 -0.34088873798587727
24

O 4.32814035077555 2.305496391925434 3.473645959550637 0.6958725355384321
H 4.486635164984726 3.241193359024203 3.747400446491719 -0.3630461770375307
H 4.437931786134154 1.6999330021485437 4.345926421673788 -0.3376682358017351
O 2.218310945402032 0.6442217264777875 1.86073861945045 0.6997926865021846
H 3.0794909338868677 1.1675906346669782 2.049019280489325 -0.3601729999095583
H 2.3399036128985795 0.18449274913681357 0.9985261629904969 -0.35073834799456816
O 1.9319783608858927 0.8887006982609215 5.4371703015017125 0.7056407966454668
H 0.9724929190860566 1.0711033250687 5.534218921563743 -0.35362671170413507
H 2.1669992376345446 1.4183595404272873 4.6686803178495655 -0.3589302702942134
O 2.0867518801661777 6.410794992119526 4.033246368799926 0.7259263838217138
H 2.263347831889173 7.075176355476247 3.211438869323008 -0.3400170047272696
H 2.0477989862763373 6.979755529798924 4.696136117768637 -0.36919526925004775
O 4.796615265102338 6.285429073850374 2.4667682659143275 0.6971649591211664
H 5.301695882651007 5.758990675572914 3.021565655429489 -0.3430271113129044
H 3.957339507842046 6.167843296743076 2.9691243622000427 -0.34596620514106813
O 1.0146774111737853 4.012863370381313 1.2787041277010962 0.6915190559831395
H 0.9093847849235352 4.4428023036732345 2.1183505096167137 -0.34542258687433014
H 1.1568263796920661 3.075309649437412 1.5562678467921043 -0.3438840414415817
O 7.783941372621415 1.8627754173349498 3.268202237340711 0.6793509653667738
H 7.085840634270032 2.1375597766610865 2.685016160466002 -0.34911082817096084
H 7.672059227692121 0.8318653827723475 3.170323136453659 -0.3318344777622737
O 4.840910375553161 4.150547479190198 5.927219108408747 0.6951717710394034
H 4.564434846551713 4.884598607027619 6.266939546562875 -0.3571039022884559
H 4.324256860353365 3.559262930679272 6.469775776000003 -0.3406949843075946
24

O 4.328234270436548 2.3061597036849775 3.47365219696578 0.6967794626486716
H 4.4813344957745045 3.238994567732904 3.75003490999648 -0.3633630790574188
H 4.441570022726586 1.7039637655225253 4.341048882720487 -0.33831053447726855
O 2.2180932397218895 0.6443635424453465 1.8605974939829895 0.6992283538339876
H 3.078952112382837 1.1703836847071645 2.048289265082626 -0.36017842690420376
H 2.3427407042418085 0.1801247875654851 0.9995027242257358 -0.35072474381358676
O 1.932407518148363 0.8895698280345901 5.436749843859343 0.7061382951274664
H 0.9709438865755873 1.0673800502954185 5.54245075189223 -0.3540844179382916
H 2.1712633216360326 1.4140382637178557 4.667848659111867 -0.3596669455180127
O 2.0852014997171255 6.410583856972035 4.032377570688417 0.7251873830425974
H 2.268787634522412 7.080190600923453 3.208892167951224 -0.33905259480508987
H 2.0522924733797683 6.986722889818944 4.7064974451491395 -0.36804831672988114
O 4.796759317624718 6.283701967296395 2.4661393417325916 0.6967939287854001
H 5.303822601455514 5.759986836418391 3.030556278385925 -0.34234984772483645
H 3.95924939026657 6.17081440420034 2.967787254909339 -0.3463770829731061
O 1.0155324127746848 4.013702010593316 1.2795671167302545 0.6910914585298602
H 0.9079724244721844 4.434848056949636 2.11797981466313 -0.3459137240955211
H 1.1611016913475016 3.0737134302656504 1.5623627993468 -0.34290403313460116
O 7.782904217090974 1.8634434183737507 3.2693028419059824 0.6794617728443753
H 7.084691561583374 2.1371232063139103 2.6825736961368176 -0.34863749164932256
H 7.672827675832833 0.8365317209337849 3.1639794472591927 -0.3324345938403387
O 4.840980997153643 4.148914135388875 5.926165634770376 0.6943938682725792
H 4.566114189172658 4.894615816769362 6.268525880433323 -0.35641580615855584
H 4.3220179308313815 3.552603452656138 6.468517269076537 -0.34061288426481784
24

O 4.328343106735115 2.3067646948193303 3.4737752756722875 0.6979083291874884
H 4.475972363171385 3.2363590643511277 3.752635550113394 -0.3637311557962736
H 4.44498684887132 1.7093061354643533 4.334350768523774 -0.3390636889267158
O 2.2179624621093685 0.6445253955934014 1.860446718608803 0.6986932807155353
H 3.0771997027034166 1.1724884145171466 2.0473959056304203 -0.3601102951165275
H 2.3454917804866 0.17604267375261706 1.0010024578904202 -0.35063269772066785
O 1.9327927613270401 0.890447064764169 5.436332355227521 0.7067809880357785
H 0.9699586993617407 1.0634886233201677 5.550711498946247 -0.3547708730003579
H 2.1756744264774572 1.4097659597463412 4.666848759618681 -0.36061953680595404
O 2.0836979469200316 6.41033947132968 4.031218698896669 0.7242752415877431
H 2.2736979801581585 7.0837675072819275 3.207899735853714 -0.3381875021401207
H 2.0565871695380435 6.995857265278906 4.719724612827357 -0.3665435216986478
O 4.796809517665203 6.282003994937045 2.465509161037793 0.696246668542198
H 5.307309727079742 5.760155922082499 3.040195193107228 -0.34149850923162584
H 3.961236407268208 6.174133604181971 2.9658882176123127 -0.3468150522767526
O 1.0164018739027008 4.014461032944922 1.2804294749879725 0.6905955820069289
H 0.9064537675601116 4.427468081313454 2.1181215157544746 -0.34646556744030754
H 1.165262654569718 3.072753364089071 1.568016536179634 -0.34180591811405814
O 7.781857613246482 1.8639706645296452 3.270397802800381 0.6796476283837454
H 7.083226927497141 2.13720358751305 2.679886874622643 -0.3480397301231467
H 7.67409283193141 0.8429358427625755 3.1579919157627936 -0.33322577084871363
O 4.841107569082028 4.147043094394868 5.925026473635213 0.6932072257787196
H 4.566690232777858 4.90876466553847 6.2715727907608025 -0.3553343161589916
H 4.319944725773252 3.5455631205182714 6.467079761862042 -0.3405108088393165
24

O 4.328465766920356 2.307311178785722 3.474008515067863 0.699374517078041
H 4.470562308412217 3.233368069459793 3.7552117501174633 -0.3640872512898794
H 4.448186507464683 1.7158810991518256 4.325928871730745 -0.34010612849182875
O 2.2179183033448706 0.6447062705350598 1.8602848785016426 0.6983901177833733
H 3.0742448432319214 1.173907299665315 2.046341831298716 -0.3600780820183067
H 2.34815111844989 0.17226072603768866 1.0030468654424312 -0.3505185121714066
O 1.933132475162303 0.8913289771418698 5.435922326287794 0.707410213162486
H 0.9695875822187021 1.0594448760816209 5.5589626930650775 -0.35564728425093295
H 2.180208961908138 1.4055747543492068 4.665647352249714 -0.361684809508535
O 2.082239436900743 6.410096835542623 4.029809457964771 0.7232784146191624
H 2.278058259600991 7.085894894014135 3.20847276660378 -0.3376376530196191
H 2.0607296430606854 7.006623345931428 4.735176259625831 -0.36457800854705846
O 4.796781308725816 6.280325368015986 2.4648858698570146 0.6955241251853346
H 5.311987332085071 5.759671068051381 3.0503105590985955 -0.34041814646116186
H 3.963224728438462 6.177782416077134 2.9634687174510477 -0.3473293996023896
O 1.017288150683838 4.015129963490846 1.281286196031911 0.6900885478874355
H 0.9048037419745466 4.420752885804086 2.11890549639938 -0.34695416590929606
H 1.1692967621589652 3.0725029667336514 1.5731779062491202 -0.3407738381393648
O 7.780797548882866 1.8643649105950797 3.2714824712762063 0.6800277017148006
H 7.081514496701714 2.137788045240687 2.6770155427119464 -0.34731712859298647
H 7.675851735321456 0.8509672970169622 3.152373453818274 -0.33432578949279945
O 4.84126906377968 4.144978393828221 5.923826159786757 0.6916273028493243
H 4.5664476387113595 4.926239029040299 6.275740588556442 -0.353787813374571
H 4.318085625981085 3.538247431979462 6.465413768823915 -0.34047692940984065
24

O 4.328600793704628 2.3078002329379803 3.4743428345549865 0.7011850203069954
H 4.465117909805119 3.2301102791526612 3.7577744096139796 -0.3643317254021906
H 4.451179441863652 1.723582309827779 4.31591713819269 -0.34154977832928257
O 2.217958810575691 0.644904730741482 1.8601109830791704 0.6986162534748295
H 3.0701220695893463 1.174657147663784 2.0451341791595232 -0.36025015217749656
H 2.3507144501915485 0.16878663613899952 1.0056452955907897 -0.3504697230503947
O 1.9334262250235206 0.8922121426492904 5.435523654625361 0.7078069187614249
H 0.9698635928988119 1.0552678359259133 5.567167509203004 -0.3566479461970964
H 2.1848416167448526 1.4014913041931971 4.664218800896386 -0.3627170873002522
O 2.0808244615595273 6.409891145274642 4.0281933914162185 0.7222637720768748
H 2.2818549790536453 7.086580675196668 3.2105971412834426 -0.3376057623823586
H 2.064755167409934 7.018464241260776 4.752176326985731 -0.3620533467638123
O 4.796692336279603 6.278655293269343 2.4642787611784263 0.6946564729386062
H 5.317659700220383 5.758723754047598 3.060703328099474 -0.3390805146329515
H 3.9651300621071375 6.181739701047132 2.960579050047169 -0.3479674152229302
O 1.0181931829758897 4.0157009040695035 1.2821336174863467 0.6896979077697167
H 0.9030006681544991 4.414774720223948 2.1204310038111647 -0.3472045109869295
H 1.173195233878823 3.0730116477287663 1.5778041697977532 -0.34011343066755484
O 7.779719558253857 1.8646367632359693 3.2725519067294955 0.6808043209334058
H 7.079633600111763 2.1388577461827096 2.6740303648253936 -0.34656632916618013
H 7.678096921427911 0.8604766301777905 3.1471304593283285 -0.3358386768361963
O 4.8414442196452425 4.142769290963472 5.92259030477146 0.6898079742926568
H 4.565682917355092 4.946155495522202 6.280663059170376 -0.3517431563055502
H 4.316480793246756 3.530756088747974 6.463479475885237 -0.3406990851334024
24

O 4.328746299252122 2.308234650723878 3.474766444933004 0.7031564278861586
H 4.459652504286719 3.2266806710923195 3.760335817307741 -0.36445715212033547
H 4.453983520394076 1.7322722625250468 4.304491365266899 -0.34322502634324814
O 2.218080453679518 0.6451189532970761 1.859924295353246 0.6992970176136288
H 3.064890215669484 1.1747699423312286 2.043785391664033 -0.3605837809438741
H 2.353179297943609 0.16562034826715233 1.008793851725861 -0.35047798283220244
O 1.9336748424518646 0.8930932868740588 5.435139520518736 0.707968995816157
H 0.9708024705803223 1.0509790427718606 5.575291496198722 -0.357758563799479
H 2.1895452613113893 1.39753582729929 4.662546230340459 -0.36371974848803146
O 2.0794518327610247 6.40975450500241 4.026414135677817 0.7212409119771499
H 2.2850807638612163 7.085849119248815 3.2142379566027546 -0.33798732825111266
H 2.068686687000465 7.030853132810233 4.770073501171618 -0.35906832740527284
O 4.796561578955133 6.276982685596353 2.463697503589833 0.693686872871627
H 5.324117083446539 5.757511400101251 3.071160597190721 -0.33758607628261794
H 3.966861658069074 6.1859829705537015 2.957276757916753 -0.3486646760122406
O 1.0191183508723831 4.0161689342869265 1.282969901245287 0.689396705356943
H 0.9010273996837621 4.4095852810254215 2.122762494347679 -0.3472246875221371
H 1.1769528690272193 3.07430612983124 1.5818600302381522 -0.33979070532134525
O 7.7786189139061 1.864799725707041 3.273601171626513 0.681839726261769
H 7.077671490747995 2.1403889375442304 2.6710096076493053 -0.3458116646169185
H 7.680816653930589 0.8712738509633 3.142261767565337 -0.3376021588559375
O 4.8416130119380085 4.140466321307097 5.921343730607205 0.6877615427435158
H 4.564680591039753 4.967619268240641 6.285977481477866 -0.3493050322128878
H 4.3151631978948854 3.5231819994743647 6.46124615690096 -0.3410852895193365
24

O 4.328899887319733 2.3086192711760667 3.475264553166692 0.7051231846060768
H 4.4541787555602035 3.2231778495030556 3.762908934738021 -0.36453900984072285
H 4.456625613030518 1.7417786842032905 4.291874732784929 -0.34489697816144693
O 2.2182780742661463 0.6453466883488461 1.8597243827636196 0.700122365267726
H 3.058632712599849 1.1742933721803614 2.0423131714421836 -0.3609037206429133
H 2.3555450891451346 0.16275402154928714 1.0124755570351816 -0.35047402763473545
O 1.9338804454905167 0.893969376399734 5.434772300827655 0.7080486160750943
H 0.9724020242427308 1.0466022366921657 5.583303173916031 -0.359005790639377
H 2.194290739263709 1.3937216749329928 4.660622214447204 -0.3647922874897769
O 2.0781206058589454 6.409714215186242 4.02451316447675 0.7202524710778029
H 2.2877347897039084 7.0837413488143826 3.2193395926744035 -0.3385623906701619
H 2.0725359035118123 7.043319999190927 4.788274650029075 -0.3558418272168048
O 4.796408503196628 6.275296761642209 2.463151632824105 0.6926549951215248
H 5.331145355653464 5.756227672993194 3.0814664503092435 -0.33608055213068466
H 3.9683253545506516 6.190488884321067 2.9536248935272513 -0.34931241621499387
O 1.0200644050093044 4.016532169907838 1.283795277525982 0.6890363632500118
H 0.8988723310809743 4.405214119681978 2.125924622723778 -0.3471547099959892
H 1.1805682967700002 3.0763900845077514 1.5853183419402666 -0.3395164910985392
O 7.777490900970265 1.864870262287755 3.2746256292490745 0.6829232242915224
H 7.075719725788666 2.1423542389926324 2.6680361400081822 -0.34503047434103173
H 7.683994675672305 0.8831252868133025 3.1377571743907953 -0.33942886768799596
O 4.841758108916244 4.138116695408023 5.92010851917943 0.6854817081232238
H 4.563690139177023 4.989796656608168 6.291355681409562 -0.3466363137261649
H 4.3141582519135 3.5156105356946186 6.458691397183086 -0.3414670703216047
24

O 4.329058563736752 2.308961273785059 3.475819025781494 0.7070772308035667
H 4.448708166443933 3.219700866024545 3.765506405097656 -0.3645901011443996
H 4.459143496302028 1.7518905139849235 4.278344433811944 -0.3465530194423686
O 2.2185447377464675 0.6455851572516275 1.8595112965481504 0.7010244656854963
H 3.0514577352755152 1.1732912365195627 2.040739967360416 -0.3611827070758665
H 2.357813116732332 0.16017271772874547 1.016661343811462 -0.3504519390929116
O 1.9340464229991388 0.894837621173227 5.434423524718857 0.7080701426613614
H 0.9746415383716589 1.0421633468075961 5.591174516867787 -0.3603737009580794
H 2.1990465373623858 1.3900554124597782 4.658449212079923 -0.36593336537943366
O 2.076829953961308 6.4097919255366085 4.022528380088567 0.7194534725321686
H 2.289824387026054 7.080318729724965 3.2258225198806447 -0.3393791893632787
H 2.0763051715160517 7.055465611245067 4.806264910498618 -0.35248275039305776
O 4.796252199825735 6.27358759571673 2.4626499993557527 0.6915866008579612
H 5.33853538633906 5.755053469724224 3.091412634546312 -0.3345978332660118
H 3.969427618229959 6.195233352047204 2.9496897057531934 -0.34989759498328665
O 1.0210314628857768 4.016791539118719 1.2846120303789679 0.6886009844886529
H 0.8965301739043805 4.401668404100706 2.1298980902182163 -0.34701427641419413
H 1.1840445659826124 3.079242516427833 1.5881620124299007 -0.3392545649393005
O 7.77633105282858 1.8648678037784134 3.2756212129042215 0.6840348023394938
H 7.073870531988756 2.1447238988810655 2.6651945165614266 -0.3442183179732201
H 7.687610272643983 0.8957519549626684 3.1335960779128635 -0.34130385241021066
O 4.841865397913147 4.135761985304633 5.91890320376637 0.6830427318633541
H 4.562917776630487 5.011949812515639 6.296517176128666 -0.3438155507186932
H 4.313483389408971 3.508118791882735 6.455801719667288 -0.3418416676777589
24

O 4.3292186487582365 2.3092705270854816 3.47640813363794 0.7090311208872866
H 4.443250749394402 3.216346649747647 3.7681401506491317 -0.3645491168163697
H 4.4615875541775285 1.76235513339171 4.264235975929265 -0.3482783630899805
O 2.2188716932182793 0.6458310072188874 1.8592855711006517 0.7022039142312315
H 3.0434985110686603 1.171843928590498 2.039093098921204 -0.3615542334384665
H 2.359986652539322 0.15785437917880527 1.0213103413369626 -0.350484055018505
O 1.9341774237940688 0.8956954672464729 5.434093856576682 0.7079167581627683
H 0.977482172656425 1.037690178208757 5.598882656599606 -0.3617979613538135
H 2.2037787009957643 1.3865370266623969 4.656039655312652 -0.3670264533065015
O 2.0755789691902162 6.41000348330066 4.02049401389349 0.7189555405756212
H 2.2913659711173815 7.075664763076052 3.2335812020738386 -0.3406116899650051
H 2.079989924410376 7.066963003341938 4.823611547923947 -0.34898357263846447
O 4.796110777228784 6.271846403858247 2.4622004711100898 0.6905316295368336
H 5.3460892916854394 5.754151426031483 3.1008061694704594 -0.3331172126028831
H 3.970079495029701 6.200192300772462 2.945537780555581 -0.35048154909381424
O 1.0220189851476775 4.016950658396472 1.285424402569155 0.6882191685378278
H 0.8940023447601921 4.398934135676411 2.134620422861028 -0.34668081718605115
H 1.1873893579901433 3.082817899839511 1.590383218033107 -0.33925558809460676
O 7.775135306283708 1.8648146914632382 3.276584658074721 0.68527963131704
H 7.072213305737228 2.1474666782663845 2.662567895476435 -0.34343706660897233
H 7.691639047669816 0.9088302105863025 3.1297465239244566 -0.34327110512645875
O 4.841924081861067 4.1334371525843006 5.917742491165601 0.6806009729201479
H 4.562524452699643 5.03345313749115 6.301234350954623 -0.34086987900287125
H 4.313148601266923 3.500775156333404 6.452571805429201 -0.34234007282595513
24

O 4.329375659786099 2.309560031286426 3.477006275352611 0.7108705962851778
H 4.4378148722728055 3.2132080697268113 3.770821364912656 -0.364390022080482
H 4.464022660603894 1.7728774087418198 4.249947185775695 -0.3499961769215919
O 2.2192484641155668 0.646080324573818 1.8590480469071324 0.7036870092352701
H 3.0349136906918193 1.1700490358230025 2.0374054838017877 -0.3620543959716882
H 2.3620712306492155 0.15576911136887298 1.0263694818337687 -0.35059406989512687
O 1.9342793342367293 0.8965406467972269 5.433783097245145 0.7075804063768691
H 0.9808681662224563 1.0332117409464094 5.606407838460308 -0.3632312364640433
H 2.20845113872569 1.3831602514566594 4.6534154445713485 -0.3680208999167802
O 2.0743664291926383 6.410359110017593 4.01844136275677 0.7187855149541416
H 2.2923850416759555 7.069883829956386 3.242483844683526 -0.3422325693626359
H 2.0835810411911244 7.077550999299632 4.839957098165193 -0.3454498341918446
O 4.796000869490658 6.2700656919431825 2.4618097380335833 0.6895498187236091
H 5.35362512828169 5.7536604153695645 3.109475240737938 -0.3316950341313647
H 3.970200052597572 6.205342863068001 2.941233273990694 -0.3510604923253897
O 1.0230257270147118 4.017015845700723 1.286238439518196 0.6879295218815471
H 0.8912968527468126 4.396978437079253 2.139991825019883 -0.3461045857930537
H 1.1906147110492855 3.0870495781117535 1.5919846715164072 -0.33960606471697474
O 7.773900128539712 1.8647361226112342 3.2775137484655823 0.6866348665729827
H 7.070831470846688 2.1505506062308566 2.6602350007475106 -0.342750491156004
H 7.6960538352809 0.9219922791509327 3.1261642432524006 -0.3452455357819515
O 4.841926392278791 4.131170867178643 5.9166374848944505 0.6783237339809673
H 4.562629624054578 5.053790999767653 6.305329753030919 -0.33793718934275185
H 4.313157582289065 3.4936392547262254 6.449003216107429 -0.3429928699588587
24

O 4.329524275270722 2.3098458880347343 3.477584297170575 0.7124603849954352
H 4.432407085305304 3.210371339699886 3.7735600241703797 -0.36417498782525126
H 4.466528775064686 1.783119164196605 4.235933510579874 -0.3515182461487445
O 2.2196629189557457 0.646328623367422 1.8587997929464248 0.7052286596187556
H 3.0258869820396916 1.1680215382364028 2.035715871483136 -0.3625590783665511
H 2.3640747959209074 0.15387910997885756 1.0317738512737658 -0.350725269611067
O 1.934359192132074 0.8973712244725849 5.43349022412584 0.7072394828685318
H 0.9847279863626964 1.0287576915365464 5.613734970207723 -0.36467396648682227
H 2.21302602183897 1.379913271973534 4.650606881931353 -0.3689896649047617
O 2.073190614483374 6.410863729191636 4.016399510625375 0.7189603924291215
H 2.2929168492591563 7.063105427286699 3.2523706439544497 -0.34403928258038796
H 2.0870665650128086 7.08702520546038 4.8550103632237125 -0.3421344947681054
O 4.7959372051405555 6.268239303715045 2.4614832939885147 0.6886995738185187
H 5.3609794960579205 5.753698338891565 3.1172720752787737 -0.3304713471535873
H 3.9697201916353095 6.210663997192773 2.9368353423478912 -0.3515511293067439
O 1.024049744251176 4.01699596485624 1.287061658886137 0.6876366305642734
H 0.8884278133276917 4.395752375583028 2.145881812049209 -0.34539858898191
H 1.193736862501579 3.0918487348813075 1.5929778223994828 -0.34009416912323065
O 7.7726225987971365 1.8646595634842171 3.278407478259216 0.6879395304256746
H 7.069799972927944 2.153943858137676 2.658267705994437 -0.3421638622085549
H 7.700826090889481 0.9348342516537853 3.1227927510322537 -0.3470632278013843
O 4.841867125401585 4.12898631670474 5.915596166198066 0.6763238731455086
H 4.563318091710626 5.072545271135628 6.308668973916474 -0.3352511304739183
H 4.313508269212221 3.4867619069131566 6.4451037364604185 -0.3436800821248125
24

O 4.329658395964386 2.310146770133233 3.4781103506200446 0.7137695309061916
H 4.427031960123678 3.207913051532171 3.7763640444108995 -0.36396820170916366
H 4.469200091119376 1.792710635142929 4.22269543069194 -0.3527573277591217
O 2.220101250793781 0.6465707751930534 1.858542191616489 0.7066502160290491
H 3.016626097501712 1.1658935591788415 2.0340683429466777 -0.36297908393932454
H 2.3660075956084032 0.1521396923721322 1.0374482397799805 -0.3508367786737244
O 1.9344250358733672 0.8981855609389667 5.433213474924697 0.7070510072009446
H 0.9889754043486942 1.0243581002685382 5.6208537673198755 -0.3661244104221789
H 2.2174640949769233 1.376779918507713 4.647651282913183 -0.36998619107258135
O 2.0720491673856136 6.411517415462933 4.014396014789582 0.7195089977105413
H 2.29300878843772 7.055488533435874 3.2630479850564713 -0.34593269019932904
H 2.090432778768654 7.095227929268084 4.868537038996538 -0.3392145923673855
O 4.795932282271284 6.266362380691243 2.4612255964721848 0.6880133152442072
H 5.368007927845822 5.754360990349654 3.124072864415813 -0.32952543876189155
H 3.9685869070641875 6.216136308870189 2.932395698711119 -0.35190647005040165
O 1.0250884827589875 4.0169019951943055 1.287902512446867 0.6872895867561812
H 0.885414693809361 4.395194347406134 2.152135144924976 -0.34467025424250586
H 1.1967764829701086 3.0971055142137565 1.593383840948494 -0.34055801768685123
O 7.771300460009004 1.8646139187782391 3.2792661257123874 0.6891000668479004
H 7.069183119434599 2.1576157133797778 2.6567290796453946 -0.34166148068650604
H 7.7059274743798785 0.9469278266029797 3.119564255779948 -0.3486486137555853
O 4.841743190817129 4.126901949553654 5.914623901403256 0.6746586909571808
H 4.564646947876627 5.089381357028913 6.311153037380082 -0.33294425620722046
H 4.314192666423479 3.4801848995027633 6.440887333544166 -0.3443276041183393
24

O 4.329771287823885 2.3104831338161427 3.478551103737466 0.7148318171039778
H 4.421692075877409 3.2058979137216608 3.7792388389518603 -0.36376354364999663
H 4.472142849357274 1.8012642646758816 4.210759552131218 -0.3537610998712919
O 2.220548204573638 0.6468010863496708 1.8582770081861846 0.708030361856248
H 3.007358127926163 1.1638117353069872 2.032511136511384 -0.3633739481407601
H 2.367881983611488 0.15050038058098505 1.0433090815301782 -0.35096479803831804
O 1.9344857300990232 0.8989822333374661 5.432950456490561 0.7070160027746428
H 0.9935113661756587 1.0200431908658256 5.62775872910271 -0.3675413253746913
H 2.221725095194044 1.3737410012864826 4.644591414498562 -0.3709472392828067
O 2.0709389855075337 6.412315953523686 4.012457654544837 0.7203611601478863
H 2.292722270116392 7.047225327723847 3.2742845213082843 -0.34795238254639027
H 2.0936649869264063 7.10203828755893 4.880349492160684 -0.33666383070078787
O 4.795996081443941 6.264431346109191 2.4610401671199416 0.6875139180833336
H 5.374585846525112 5.755722336505482 3.129778602995792 -0.32883087081132245
H 3.966767095683044 6.221741881396868 2.927956263635963 -0.3521726935729913
O 1.02613887558382 4.016746613551722 1.288769816763408 0.6869604200134147
H 0.8822813441627849 4.395233770744244 2.1585790380944845 -0.34388211734910623
H 1.199758863277213 3.1026891662839042 1.593234306884816 -0.34110430212609244
O 7.769932095744134 1.864628247677403 3.280091183040214 0.6901656139968233
H 7.06903259773781 2.1615373192960274 2.655671493500398 -0.34127109465596583
H 7.7113321407266895 0.957840205391549 3.116402443211356 -0.35002491761369836
O 4.841553215492641 4.124932265719866 5.913723904738919 0.6733812734602806
H 4.56665152365508 5.104034655779502 6.3127115970830125 -0.3309949330721046
H 4.31519701576394 3.473940927091332 6.436373765055695 -0.34501147063025384
24

O 4.329855946726459 2.310875767495121 3.478873990363114 0.7156379723116033
H 4.416388192583231 3.2043776274453966 3.782187517407804 -0.3635317708157355
H 4.4754692071255135 1.8084000661095707 4.200642585953931 -0.35455650503658676
O 2.220987513313412 0.6470134785019048 1.8580062840717453 0.7094676224972525
H 2.998323823944036 1.1619338145336604 2.03109578298573 -0.3638168885320483
H 2.3697124757138135 0.14890546625004025 1.0492656302059689 -0.35114883670099495
O 1.9345507790169851 0.8997600069995254 5.432698267186732 0.7071156107302412
H 0.9982270746641382 1.015842773065116 5.634448892857237 -0.36887483987825254
H 2.225768424580887 1.37077546785245 4.641473761066495 -0.3717957420522079
O 2.069856066586486 6.413251007952179 4.01061118734292 0.7213698291471324
H 2.292133534143553 7.038542799023099 3.285809244863244 -0.3500759839551263
H 2.0967482875878485 7.107366017633068 4.890299741127396 -0.33444820216286175
O 4.796135924269653 6.262443827033382 2.4609296912960565 0.6872364490799809
H 5.380608779799556 5.757835416775172 3.1343151435739904 -0.32837393014405913
H 3.964250055610079 6.227464473915698 2.923547386760358 -0.35239507079670007
O 1.0271974064669471 4.016543930521176 1.289672304282394 0.6867121101857059
H 0.8790548275601151 4.395794633149531 2.1650326821404176 -0.3429604565083577
H 1.2027134776441695 3.1084510219786443 1.5925698637470949 -0.341867004468302
O 7.768516481782592 1.864730405354485 3.28088522120233 0.6911867467863702
H 7.069385852824374 2.165682267052389 2.6551348132166734 -0.34105032007645586
H 7.7170189129955915 0.9671556062905583 3.1132262334381564 -0.3511868227676336
O 4.841297203470726 4.123088731140755 5.9128976624785805 0.6725915684993407
H 4.569350230807828 5.116297696100987 6.313297048926099 -0.32941880347863184
H 4.3165026952570456 3.4680539342984003 6.43158756834505 -0.3458167318636398
24

O 4.329905636780378 2.3113439069457042 3.4790500318016075 0.716150303180185
H 4.4111195016041576 3.2033902659640248 3.785211079074256 -0.3633061621978678
H 4.479288311984512 1.8137773122334981 4.192806094600382 -0.35507740500858975
O 2.2214024679412763 0.6472017394686325 1.8577322307132276 0.7108668008043069
H 2.9897700729759227 1.1604240068054998 2.029875854614935 -0.36426285745296927
H 2.3715157057183105 0.14729464127677827 1.0552214698833635 -0.3513642350115874
O 1.9346300893822137 0.9005178512771712 5.432453638502321 0.7074562997750335
H 1.0030075860623027 1.011785575335187 5.640927353097259 -0.37010905544213335
H 2.229553947409527 1.367861501839332 4.638346584335444 -0.37255573549422205
O 2.0687954197033602 6.414310367421062 4.008883810107447 0.722446289087493
H 2.291333372949611 7.029701227377898 3.297313223210246 -0.3521525434054589
H 2.0996681312414696 7.111146003797063 4.898273111052304 -0.33269862032889663
O 4.796356414443554 6.260398564045942 2.460896117785271 0.687219628270828
H 5.385991971813267 5.760733895671808 3.1376325155675078 -0.32823071704975126
H 3.9610488018990133 6.233289514764341 2.919187010860654 -0.35253675157905495
O 1.0282601778871778 4.016309227106504 1.2906182445426826 0.6865126552513126
H 0.8757641415376606 4.396798641704962 2.171316609597568 -0.3419685890150592
H 1.2056732372722943 3.1142287737349506 1.5914381850649655 -0.3427476229657681
O 7.76705313345192 1.8649451021100742 3.2816516124737953 0.6921103678812177
H 7.070265000353112 2.1700272348588805 2.655145025317586 -0.341017762056839
H 7.722973236113796 0.9745053038527068 3.109955675757132 -0.3520644689217238
O 4.840976292337484 4.121380387455066 5.912145212352455 0.6723819236910467
H 4.57274783912891 5.126011547627658 6.312880577466627 -0.32836245553989507
H 4.318087026891836 3.4625395593198087 6.426557216594222 -0.3466892864715956
24

O 4.329914570078631 2.3119030571156407 3.479056888970544 0.7163636044883641
H 4.405883881705704 3.2029596862870413 3.7883081999217683 -0.36315176853049835
H 4.483695243087275 1.8171287965355212 4.187608285324378 -0.35525621940493113
O 2.2217766362335465 0.6473598806215032 1.8574572934586688 0.7120740480600127
H 2.9819383376229363 1.159445461542515 2.0289042829821486 -0.364623600098244
H 2.373310104203746 0.14560471698715186 1.0610771396590044 -0.35156644263396863
O 1.9347336822225576 0.9012549167940225 5.432213099520431 0.7081816074095006
H 1.0077351376574848 1.0078988124543788 5.6472006367153895 -0.3712492741543697
H 2.2330426900828937 1.364977759302282 4.635257910361916 -0.37329282738395364
O 2.067751042009903 6.415478317218305 4.007303383734646 0.7235647168169561
H 2.2904277914833187 7.020994613754319 3.3084495518324726 -0.35404753279736456
H 2.1024104977426146 7.113332819461305 4.904182583726214 -0.331570432734448
O 4.796659373229127 6.258295389502143 2.460940702186239 0.6874764861777134
H 5.3906703555494015 5.764433207154848 3.1397042609297765 -0.32847296305406226
H 3.9572006504008415 6.23920342721763 2.9148806806662293 -0.35254260141955085
O 1.02932304132498 4.016058466615194 1.29161509886774 0.6863214200478582
H 0.8724390823841297 4.398167801710012 2.1772587585423095 -0.3410488984571429
H 1.2086738373961063 3.119850314298185 1.5898929091542302 -0.3435601410638104
O 7.765542109294789 1.8652918722075469 3.2823941686410083 0.6928608291932943
H 7.0716761026707 2.1745527811409584 2.6557133416362957 -0.34114867288100037
H 7.729188068988913 0.9795985887819508 3.106518753462285 -0.3526085033439754
O 4.840592532955062 4.11981424444497 5.911465401345502 0.6727731795425071
H 4.576838556771448 5.133057988046547 6.311448453383271 -0.3279481084323296
H 4.319923403580224 3.4574053689235615 6.421314887550178 -0.3475279053466074
24

O 4.329878598309496 2.312563059591516 3.478881460054959 0.7163147196843149
H 4.400678190510781 3.203095242954788 3.791475043889618 -0.36308408457863284
H 4.488759805548146 1.8182904224512744 4.18526304161722 -0.35511593061393465
O 2.2220945992173036 0.6474825058949627 1.8571842477140994 0.7130973851124942
H 2.9750520949728134 1.159151746267507 2.028230166309535 -0.36490342754528493
H 2.3751153226104478 0.1437721506879237 1.0667337581876348 -0.35176191266322665
O 1.9348713693856352 0.9019704618758655 5.431973154983251 0.7093121814038912
H 1.0122928812446959 1.004207896336264 5.653277866813543 -0.372280837317039
H 2.2361974761191115 1.362104665108189 4.632253616346815 -0.3739931093156469
O 2.066716095984859 6.416736524173172 4.005898027552003 0.7246202539210065
H 2.289536400677915 7.012744292856596 3.3188410038883367 -0.355731428993575
H 2.104961936770928 7.113896197739043 4.9079643830191255 -0.3310320622661067
O 4.797043842833939 6.256135229270781 2.4610639968181074 0.6879986525582016
H 5.394598706894296 5.768931367176806 3.140526970338607 -0.3290733163988273
H 3.952766916677044 6.2451927013274355 2.9106221105844017 -0.3524334918028972
O 1.030381761087984 4.015807689204792 1.2926692382491376 0.6861639893416678
H 0.8691093005675529 4.399826597122741 2.1826984659664315 -0.3402395045580703
H 1.2117530421693632 3.1251378605671305 1.5879928118503632 -0.3442900153461843
O 7.76398407201348 1.8657833177146763 3.2831167476236303 0.6934506085950849
H 7.073608611179048 2.1792440798930963 2.6568354932443 -0.3414309224499975
H 7.735663550521789 0.9822498875099472 3.102858257618186 -0.35284422342035293
O 4.840148710313498 4.1183955507717975 5.910856109436436 0.6737172390550068
H 4.581608508045394 5.137353115960706 6.308999061777622 -0.32812038307598734
H 4.321981315361774 3.452651062053368 6.415896274467237 -0.34834037932584794
24

O 4.329795785953534 2.3133268636215396 3.4785215279854884 0.7160274231532893
H 4.395498608199529 3.203792207134205 3.7947055351931005 -0.3630682670129006
H 4.494517088560161 1.8172206006242924 4.18581338328761 -0.3547164250635817
O 2.222342789110571 0.6475652301795776 1.8569161696705678 0.714062385323325
H 2.969304179143606 1.15967794452788 2.027895833348992 -0.36517676471478755
H 2.3769517052647147 0.14173525605351336 1.0720963820397806 -0.3519942938666899
O 1.9350524312038115 0.9026638083438145 5.4317304651672105 0.7107747268117854
H 1.0165696006281406 1.0007360338581675 5.6591695937863555 -0.37317028845271505
H 2.238983566339107 1.3592254099843628 4.629375815302119 -0.37457968562552
O 2.06568319118257 6.418065045223814 4.00469532709408 0.7254189296101081
H 2.288787608746549 7.005285046524976 3.328095664505598 -0.35719299536814353
H 2.1073098064994267 7.112818998942598 4.909575753784698 -0.3309448031362282
O 4.797506205089168 6.253920087944283 2.461265768626996 0.6887893011350175
H 5.397752028869223 5.774209602384903 3.1401204102932643 -0.3299662176223901
H 3.9478310956829703 6.251243351425532 2.90639435077689 -0.3522775832607835
O 1.0314321459561506 4.015572521228091 1.293785802598774 0.6860796697130724
H 0.8658033754950892 4.401703794866781 2.187491047354217 -0.339471104080422
H 1.2149494917493466 3.1299140325662305 1.5857995579910447 -0.34504464945358004
O 7.762380397275301 1.8664239005531948 3.2838229025325116 0.6939484093230779
H 7.076035102272049 2.184091431049114 2.6584911475848663 -0.34188715984059126
H 7.7424053910646835 0.9823978610473465 3.098937752765134 -0.3528182794316974
O 4.83964822488552 4.117128050546117 5.910314398946557 0.6751938897536647
H 4.587037088210459 5.138843387994989 6.305541226113904 -0.32877904566918914
H 4.324227037394434 3.4482690934916436 6.4103398061272 -0.34920717222413444
24

O 4.329666757801539 2.3141901896411112 3.477986184448015 0.7154814450683813
H 4.390340976820398 3.2050325610713597 3.797991761210146 -0.3630900898455858
H 4.500961465006419 1.8140060464584 4.189124158790185 -0.35405246557439685
O 2.222510448178343 0.6476051628595518 1.8566563299730567 0.7150005068227399
H 2.9648434968364628 1.1611310362454585 2.027933942752318 -0.365462661611355
H 2.3788398033575198 0.1394361346208471 1.0770770375195204 -0.3522729398637755
O 1.935285300258658 0.9033343650529808 5.431482022013148 0.7125709996744631
H 1.0204647919934577 0.9975036648728757 5.66488631386211 -0.37389907062485084
H 2.241369364301404 1.356326573162224 4.626661361715531 -0.37505580035954156
O 2.06464475898967 6.419443385048484 4.003721303085496 0.725873680280344
H 2.2883113756172055 6.998946384291416 3.3358278211143277 -0.35837041241030754
H 2.109442613297638 7.110096163004586 4.908993535165522 -0.3313026922591902
O 4.798040346929122 6.2516530297428545 2.4615448483851776 0.6898893110379489
H 5.40012615475844 5.7802328974324375 3.1385279509289763 -0.33117942683147106
H 3.9424955971316664 6.257340667306735 2.902171706550876 -0.35208920622327355
O 1.0324701599596426 4.015367740699394 1.2949687243361787 0.6860671581418913
H 0.8625479827477742 4.403733751953597 2.1915123570735227 -0.3387446193579403
H 1.2183008719588797 3.1340104578847523 1.5833740072424942 -0.3458207408800311
O 7.760733334103293 1.8672094911551749 3.2845156537778575 0.694367046810322
H 7.078911530781843 2.189090645658691 2.660643855097911 -0.34252781675637367
H 7.749421953985106 0.9801123545270325 3.0947453470157673 -0.3525329917129514
O 4.839095015073776 4.1160141477511125 5.9098365969732605 0.6772332364119891
H 4.5930975042979405 5.137504064172297 6.301093578441815 -0.32995607740600896
H 4.326624680263238 3.4442456075067653 6.404685606527919 -0.3501263725310346
24

O 4.329494672869653 2.315142292387345 3.477294615321756 0.7146376381025814
H 4.3852010817965725 3.2067855579110893 3.801323949004824 -0.36317101556004905
H 4.508046675518323 1.8088491507487408 4.194901318226051 -0.3530635640416533
O 2.222590397433851 0.6476012859732572 1.856408128687273 0.7158173829939265
H 2.9617639586414723 1.1635814485726375 2.028364759762678 -0.3657012814387559
H 2.3807996834080156 0.13682309927792652 1.0815981580532736 -0.35256477897671745
O 1.9355772405257061 0.9039816491395943 5.431225325762061 0.7146921972057236
H 1.0238929971260449 0.994528097559355 5.670437211699051 -0.3744753956292266
H 2.2433271801239294 1.3533984757268205 4.624140406249621 -0.37542217694811997
O 2.0635936382735327 6.420852015803704 4.002998653004206 0.726067638596926
H 2.2882293261338735 6.994027851228397 3.341686046194102 -0.3592015221051744
H 2.11135019734696 7.105734234534119 4.906214000928463 -0.3322279489861799
O 4.798637841446395 6.249338184523987 2.4618989595042473 0.6912095708563757
H 5.401738371750463 5.786950639482462 3.1358169234587594 -0.33266905899839416
H 3.93687779862711 6.26346880350908 2.8979221895626726 -0.35182826597303896
O 1.0334920697130374 4.015206731433827 1.2962207828290278 0.6861094037809776
H 0.859367194584386 4.405857378729319 2.1946613036092044 -0.3381752999642761
H 1.2218420098216158 3.1372761840364953 1.580773106978014 -0.3464849815249935
O 7.759046192461001 1.8681277334979915 3.2851974128805397 0.6946522804836053
H 7.082178199797181 2.194243310967305 2.6632414526247876 -0.3433194886885589
H 7.75672050343426 0.9755879572117491 3.090294510259278 -0.35196742840091866
O 4.838493489002918 4.1150548424469475 5.909418346549849 0.6798315692312187
H 4.599757126309455 5.133339276266464 6.2956843867593015 -0.3317362839034612
H 4.329136853762539 3.44056125155144 6.39897481855982 -0.35100919011177134
24

O 4.329284936997818 2.316167312577304 3.47647397810553 0.7134926901481966
H 4.380074885159164 3.2090081104645507 3.804690128038202 -0.36332147584714125
H 4.5156902590008805 1.8020450198789544 4.2027259930371725 -0.35173563803654817
O 2.222579498064921 0.6475546676182516 1.8561750884371593 0.7164631144579727
H 2.960096904693404 1.167056663977815 2.029193814354067 -0.36586041915372347
H 2.3828500137046276 0.1338536758259112 1.085596462902351 -0.3528502204452443
O 1.93593405746787 0.9046052526804597 5.430958548965007 0.7171484647089066
H 1.0267873737739481 0.9918234020780661 5.675828831911932 -0.3749016988355335
H 2.244833358324805 1.3504361464749162 4.621835330924187 -0.3757360684792206
O 2.0625237923451403 6.422274146701128 4.002544549091706 0.7260611842352809
H 2.2886439048685645 6.990772661805606 3.3453834777572613 -0.3596754043761806
H 2.1130238287133625 7.099752009193644 4.901254621081255 -0.3337404543388266
O 4.799288151455556 6.246980770947508 2.462324531112324 0.6927568967348168
H 5.402628809847871 5.794296429010743 3.1320790985738456 -0.33445137579082607
H 3.9311060736290577 6.2696102241951746 2.8936099573934118 -0.35149048512314085
O 1.0344946303966802 4.015100823570585 1.2975436615807818 0.6862142595555094
H 0.8562820218467612 4.408022802282092 2.1968599542335934 -0.33784309446797245
H 1.2256031331230306 3.139584921143237 1.5780478882469717 -0.3469647926864078
O 7.75732349669526 1.869159193989816 3.2858700497225453 0.6947797885577442
H 7.085761193108404 2.1995568864373 2.666217186665096 -0.34421755567533474
H 7.764303484734922 0.969125449924626 3.0856219206381352 -0.35114138595703026
O 4.83784847284164 4.114249450347088 5.909054626171219 0.6828882890118959
H 4.606977588157751 5.126383908398413 6.28935197376378 -0.3340655376348014
H 4.331725026464275 3.4371918804873927 6.393249166703827 -0.3518090805623598
24

O 4.329044614952622 2.3172462872499873 3.4755563943254844 0.7120865286393825
H 4.374958761752772 3.211645585180221 3.8080760680129933 -0.36350800775747094
H 4.523782730407649 1.7939484015320553 4.212102277810628 -0.3501421273034886
O 2.2224788141319185 0.6474684817038862 1.8559607605085742 0.7170135515933147
H 2.9598087291012263 1.1715382895525668 2.0304108682219923 -0.3659846970959755
H 2.3850071946818874 0.1304972049655405 1.0890262038442826 -0.3531538888458724
O 1.9363598721055049 0.9052047978356722 5.430680678073593 0.7198133310856496
H 1.0291025832931715 0.9894004111399465 5.681063854596189 -0.37516633120875176
H 2.245868745837712 1.3474394903833813 4.61975992752501 -0.375950737314217
O 2.0614310081996177 6.423697235552236 4.0023685794115265 0.7257901475477011
H 2.2896275433980513 6.98934311668694 3.346726161953616 -0.359812057204592
H 2.11445653583855 7.092182671799484 4.894157362409466 -0.3356925567929492
O 4.799978800549221 6.244587113243556 2.462816482151029 0.6945065210573718
H 5.402861796688062 5.802188200482018 3.127431811730509 -0.33643729340475204
H 3.9253155852081005 6.275745442003712 2.8891976288617154 -0.3511428786174916
O 1.0354752518270722 4.015058730027369 1.2989380323450908 0.686397886636883
H 0.8533100190243068 4.410185924133442 2.198053720890208 -0.33770091197969543
H 1.2296080921163994 3.140841983026704 1.5752414292765982 -0.34732354931517817
O 7.755571037280189 1.8702790947421468 3.2865350630967667 0.6948038269171237
H 7.089574331325428 2.2050444251828507 2.6694913429205855 -0.345203200566353
H 7.772165673496379 0.961104819030974 3.080783026212098 -0.3501271030513968
O 4.8371652016279985 4.1135952259462405 5.908739710344767 0.6863000701990312
H 4.614714164898963 5.116708153413498 6.2821462263500685 -0.3367944310285931
H 4.334350263334093 3.434109579773208 6.3875501611041905 -0.35257209218966545
24

O 4.3287817417973695 2.3183592107873063 3.4745759740128177 0.710448392082839
H 4.369849756382739 3.2146332111647 3.8114656097960777 -0.3636901803800999
H 4.532198225292398 1.7849383562471293 4.222504047499005 -0.3483534820051778
O 2.2222934857274286 0.6473478275988235 1.8557684895578994 0.7175402274001472
H 2.960804445253182 1.1769633211380834 2.0319906095196347 -0.3661207568412941
H 2.387284716903136 0.12673641960604382 1.091861142136971 -0.3534965293886826
O 1.9368569936164646 0.9057799452778572 5.430391614223273 0.7225449379653699
H 1.0308169981280146 0.9872666765564273 5.6861400048172674 -0.37526018718257526
H 2.246419001443909 1.3444132600969774 4.617918888935416 -0.3760211568225834
O 2.060313394805054 6.425113839706122 4.002471196877774 0.7252379017477513
H 2.2912132375594654 6.989801579949818 3.345635272967102 -0.3596099409670753
H 2.1156437602030285 7.083077507518465 4.884993305059991 -0.3379829703694125
O 4.800695611299703 6.242164600158471 2.4633680269781744 0.6964279469743606
H 5.402527014286196 5.8105307098122045 3.122018858117979 -0.3385436529699506
H 3.919643665386074 6.281853260671675 2.8846485325983524 -0.3508411496986136
O 1.0364321059363042 4.015086212168364 1.3004036664281595 0.6866625652485718
H 0.8504648282523938 4.412310979908774 2.198212802595637 -0.33768950119603924
H 1.23387252945676 3.140990923376444 1.5723864023551788 -0.34762308837239864
O 7.753795795903316 1.871459346936045 3.287193809673766 0.6947815754409608
H 7.093521826334448 2.2107238496824237 2.6729734603309807 -0.34627032971199934
H 7.780292561068199 0.9519540099837631 3.07584612065885 -0.34898697569847315
O 4.836449342449461 4.11308692539753 5.908467066617825 0.6900147983632441
H 4.62291451486624 5.104424627012283 6.274131113791901 -0.3398368840638657
H 4.336974443582314 3.4312840831813753 6.381917941239273 -0.35333155955501083
24

O 4.328504624208839 2.319486868364486 3.4735661673607283 0.7085786682944377
H 4.364745475832343 3.217897871175869 3.8148408118043986 -0.3638622840376391
H 4.540805352212477 1.775392323035647 4.233416737166288 -0.3463766746902984
O 2.2220322846855343 0.6471993534177858 1.855601161555052 0.7179878631235328
H 2.962936168493768 1.1832290666191718 2.033894575881717 -0.3662421549755318
H 2.3896926182637714 0.12256848111256809 1.0940956749227226 -0.35385250368966015
O 1.937425872623367 0.9063304210994864 5.4300922338336575 0.7252764846545241
H 1.031933800582328 0.9854263741585402 5.691049404477601 -0.3751933084620803
H 2.246474815092915 1.3413668425144183 4.616307438908961 -0.3759823238930118
O 2.0591716224282277 6.426521690249292 4.002842714232317 0.7245387622469797
H 2.293389169871051 6.992102232643282 3.342157724064098 -0.35905026965189346
H 2.116584133592574 7.0725112020164564 4.873869387864512 -0.34064385933249375
O 4.801422969945324 6.239721599470037 2.463970548826878 0.698469888335101
H 5.401739908060075 5.819212296437195 3.116010404439431 -0.340736481128716
H 3.914225232774457 6.287911168899335 2.8799288681109445 -0.35057472887080876
O 1.0373642113632173 4.015185868819411 1.3019395147745505 0.6870054390747549
H 0.8477557394725462 4.414371014325802 2.1973332774766603 -0.33785761668359426
H 1.2384023615360102 3.140018293471246 1.5695034336887579 -0.3478119699616171
O 7.75200575638912 1.8726705708576357 3.2878477322710746 0.6947041657228124
H 7.097501749621848 2.2166169483987166 2.6765653354957606 -0.347387671156979
H 7.788660004529428 0.942117743960509 3.0708858263821246 -0.34774287551648997
O 4.835707021553473 4.112716208458293 5.908229213806472 0.6939640875840869
H 4.631517305361853 5.089697326050182 6.265387737246685 -0.3431779583628255
H 4.339561346701753 3.428684192591562 6.3763902979721285 -0.35403267862254595
24

O 4.328221345530565 2.320611908348843 3.472558110516802 0.7065113395387395
H 4.359644563639941 3.221359776678311 3.8181820556701953 -0.36403711865604027
H 4.549475032250416 1.7656646335755917 4.244363678583064 -0.3442331036620898
O 2.221706876762458 0.6470307294157697 1.8554610397220732 0.7182580535923242
H 2.9660148610831443 1.1902006257899982 2.036073708593628 -0.36629652590006223
H 2.392236930066508 0.11800590394581194 1.0957455128879459 -0.3541837337288446
O 1.9380651242945914 0.9068559986581134 5.429784415718505 0.7279541731951167
H 1.0324800272005674 0.9838806077564727 5.6957782691911 -0.37498388055595444
H 2.2460319064593306 1.338314096862924 4.614911140424406 -0.3758906676609485
O 2.0580088636478036 6.427923042949673 4.003463052297901 0.7238423164621037
H 2.2960994528195577 6.996097085013625 3.336461118045597 -0.3581273394837442
H 2.117280176460216 7.0605873051721115 4.8609359905126 -0.3436875274973821
O 4.802144007692093 6.237267397631105 2.464613480460022 0.7005748829935992
H 5.400642434156293 5.828107817559776 3.1096029877061637 -0.3429850973700639
H 3.9091888455865673 6.293895587801791 2.8750095325600604 -0.35032565143712335
O 1.038271528135831 4.015356957560203 1.3035436857897333 0.68742722565398
H 0.8451873421531553 4.416348312161503 2.1954366975200346 -0.33828308895959736
H 1.243192998352434 3.137954898912908 1.5666013365422344 -0.3478133041402195
O 7.750209637628734 1.873883561747685 3.2884984599583094 0.6945543165877333
H 7.101409627269414 2.2227480753447852 2.6801645354633012 -0.34850485639245665
H 7.7972348094174455 0.9320351796393812 3.0659780732982127 -0.34642680460334385
O 4.834944848759099 4.1124708320386985 5.908017555328543 0.6980088455014928
H 4.640450978808502 5.072752049106831 6.256017700030828 -0.3467435188082456
H 4.342077267544499 3.426278975126528 6.371002119584224 -0.35460893466898324
24

O 4.327939403716865 2.3217194651754047 3.47157957643555 0.7043236347193078
H 4.3545466334131575 3.2249344439071375 3.82146817156578 -0.3642070978088099
H 4.558086336799238 1.7560739509942491 4.254922634648917 -0.342007105560462
O 2.221330919420499 0.6468500472624751 1.8553496514985983 0.7183549667049474
H 2.96982405810427 1.1977201339152699 2.0384713889155175 -0.3662948710043161
H 2.394919266102407 0.11307689691760393 1.0968474451594052 -0.35448816663259874
O 1.9387716385623799 0.9073564485514122 5.429471023380366 0.7304547807476105
H 1.032504555471686 0.9826277599689998 5.700307133877484 -0.37463984168033626
H 2.2450908341952514 1.335273111419563 4.613706122218915 -0.37574345500792783
O 2.0568304244900397 6.429323311127676 4.004302232693934 0.7231774320897544
H 2.2992501495935964 7.001553516025233 3.328815498878309 -0.3568675856263194
H 2.1177391903606857 7.047444608467895 4.8463957137043705 -0.3469779579916227
O 4.802840846556951 6.234812060031219 2.465284318730766 0.7026988759972077
H 5.399402207297227 5.837080567409838 3.1030177669379615 -0.3452104766601989
H 3.9046533185604075 6.299782182893371 2.8698674969412403 -0.35013592235398616
O 1.0391550203178137 4.015595363961938 1.3052133613962864 0.6879053852878199
H 0.8427592623046543 4.4182347746127295 2.1925691209628146 -0.3389171817313297
H 1.2482293159867124 3.1348738610506017 1.563678563274797 -0.34765389060132246
O 7.7484165248659975 1.8750706682254565 3.2891478442459836 0.6943849630957133
H 7.105142880518181 2.229142412034041 2.683668583144182 -0.34958712620364363
H 7.805976247745328 0.9221197974541862 3.061195333472284 -0.34512601409329946
O 4.834170005101948 4.112333508689015 5.907822088926494 0.7019915674113775
H 4.6496317028464 5.053892200594673 6.246148357400754 -0.35036178176121235
H 4.344491504865845 3.424038906893822 6.365784935018491 -0.35507313133636087
24

O 4.327665471182879 2.322797469106597 3.470654435422259 0.7021867414788754
H 4.349452160819353 3.228534905534795 3.824676896508107 -0.3643421515894728
H 4.566530460579694 1.7468963655069671 4.264733951354788 -0.33989909081836134
O 2.2209192540314193 0.6466652997499435 1.8552676732031832 0.7183522254862067
H 2.9741328729950385 1.205615925692662 2.0410265527563265 -0.36629279665797754
H 2.3977367850633557 0.10782444648745407 1.0974576013202701 -0.35478542528278934
O 1.9395407872287485 0.907831514403125 5.429155831880256 0.7326268896422345
H 1.032075323441519 0.9816638286182013 5.704611385343036 -0.3741634047314144
H 2.243656735363877 1.3322656715234193 4.612659788036901 -0.37550431040951604
O 2.0556430581002614 6.4307289177756015 4.005321289212436 0.7225260700674991
H 2.302718463487675 7.008178431718894 3.3195669545920645 -0.3553155762989171
H 2.1179748134984995 7.033267180923666 4.830516144442951 -0.35033041086918637
O 4.8034950543884145 6.232366140116072 2.4659688613649746 0.7048107546981499
H 5.398208599275239 5.845986239018383 3.0964957048250588 -0.347319403583113
H 3.9007245203347227 6.305546490577885 2.864486868292294 -0.3500730335543495
O 1.0400166356541691 4.0158938382477904 1.3069447332505342 0.688501231873976
H 0.8404657284369516 4.420032341886672 2.1888008763716953 -0.3397297381948534
H 1.2534860753394128 3.1308869820507503 1.5607246950062195 -0.34742610198633384
O 7.746635443659555 1.876206745233526 3.2897978698533255 0.6942847599126973
H 7.10860560290762 2.2358237813901325 2.6869794230102806 -0.3506218774391291
H 7.814838025658168 0.9127467789615692 3.0566035087983514 -0.3439413309305287
O 4.833390340033734 4.1122808043280985 5.907631079572371 0.7058029368804288
H 4.658961339353507 5.033515785823521 6.2359384767839705 -0.3538668881483259
H 4.346777029963157 3.4219370937091753 6.360766392229427 -0.3554800695458058
24

O 4.327405319219856 2.323836560316241 3.4698027085293917 0.7001215350432759
H 4.344362583933571 3.2320741713981396 3.8277855976814057 -0.3644308755241581
H 4.574711509481717 1.73836556733374 4.2734988354198045 -0.33793954587723163
O 2.2204872008128316 0.6464839583675317 1.855214843075016 0.718253175691576
H 2.978707769009235 1.2137111982907824 2.04367658664856 -0.3663053176156159
H 2.4006824694022875 0.10230434950183565 1.0976485295389231 -0.3550672159937288
O 1.940366699988573 0.9082809244777581 5.428843404266918 0.7343970545772125
H 1.031275780580665 0.9809826856964574 5.708662449214723 -0.3735696483383887
H 2.2417390220201363 1.3293164842400809 4.611731944726045 -0.37518469021256073
O 2.0544541204713833 6.4321448774069285 4.006473439193257 0.7219327253932648
H 2.306363477121588 7.015644913846011 3.3091077618082174 -0.35351010435325314
H 2.118008796821425 7.018294633825615 4.813643182464968 -0.3536439129032012
O 4.804088191459558 6.2299403823314075 2.4666515638499744 0.7068704936253745
H 5.397267172355457 5.854677759747808 3.090291137922459 -0.34926377578587264
H 3.89749238281716 6.311164753343469 2.858859741549985 -0.3501517010325562
O 1.0408592284441422 4.01624243415385 1.3087329457388512 0.6891745639040643
H 0.8382956737671765 4.421752927022495 2.1842266787365587 -0.3406541379337942
H 1.2589287616271112 3.12613959622067 1.5577220829955845 -0.3471572968114234
O 7.744874924102752 1.8772698467576623 3.2904505076847603 0.6942884375869436
H 7.11171313134957 2.242811240547805 2.6900079532889416 -0.3515963364628373
H 7.823770489182996 0.904244535221031 3.052259388596602 -0.3429200856912715
O 4.832614462507755 4.112281993945749 5.907430694135009 0.7093498340369109
H 4.668325627604249 5.012133766436166 6.225584274277771 -0.35716392529833696
H 4.348911088556548 3.4199503815798913 6.355969803587314 -0.3558292500243274
24

O 4.327163822343597 2.3248297959198583 3.469040823535126 0.6981672655848219
H 4.339280171688356 3.235467326934036 3.8307717388047147 -0.3644928460756872
H 4.58254676671195 1.7306749989170158 4.280975137528509 -0.33614368943609807
O 2.2200498475625308 0.6463125948382322 1.8551899770523392 0.7179789206034579
H 2.9833234904060992 1.2218323051430595 2.0463601529015283 -0.3662922755423965
H 2.4037455202818268 0.09658300618632391 1.0975058791613728 -0.35530055924031445
O 1.9412425684357903 0.90870439366396 5.428538934456649 0.7357670047766383
H 1.0302007861812976 0.980576418912625 5.712428054873054 -0.37288482490145614
H 2.239350869604004 1.3264524193066867 4.610875931259543 -0.37483692903559473
O 2.0532707207120096 6.433572496414064 4.007705166630897 0.7214632096260747
H 2.310037733546857 7.023619072690511 3.2978457618318386 -0.35148679620390877
H 2.117872836135729 7.002831918105367 4.796214410904991 -0.35686391827379527
O 4.8046025611315635 6.227545125086107 2.4673161747148518 0.7088296790231723
H 5.396790022196139 5.863012298424001 3.0846610754305988 -0.35103314195143975
H 3.89502845093426 6.316614622354798 2.8529868122897932 -0.3503419865811427
O 1.0416864738818938 4.016628984568915 1.3105719817479975 0.6899166073837546
H 0.8362323182929603 4.423418732303479 2.178964957093749 -0.34173259657658683
H 1.264515054355957 3.1208031920863384 1.554648370581787 -0.3467973670157819
O 7.743142617625521 1.8782414416027486 3.2911074801364992 0.6943795202120913
H 7.11439653854316 2.2501184684199704 2.692678495857177 -0.35248288632752733
H 7.832722147143482 0.8968934682141201 3.048210990704798 -0.3420735053071171
O 4.831851808059342 4.112297839803322 5.907204622949284 0.7125153846457191
H 4.677593055407145 4.990388454689982 6.215325316202898 -0.36017797126062745
H 4.350875198573255 3.418060063912477 6.3514142400580305 -0.35607629812611363
24

O 4.326945021778267 2.325772235306546 3.468382001353317 0.6964290104519113
H 4.334207959567327 3.238633374787762 3.8336127099403945 -0.3645482805708925
H 4.58996596541669 1.7239819027530379 4.286970969073086 -0.33458923270757646
O 2.2196214980931366 0.6461566635356562 1.8551911174345515 0.7175084256352584
H 2.9877705240985324 1.2298145542155794 2.0490196531950806 -0.3662422399648728
H 2.4069118272733934 0.09073517810463341 1.0971249596503172 -0.35547479564644735
O 1.942160962772988 0.909101601411026 5.428248063771379 0.7367304440101685
H 1.028951651049768 0.9804357576667074 5.715874553624501 -0.3721304786894257
H 2.236508422309545 1.323701788092791 4.610039477462976 -0.37448164004912277
O 2.052099083700386 6.43500770148582 4.00895668309951 0.7211202802392851
H 2.313596221254103 7.031779310568319 3.2861819782365025 -0.34931583375895914
H 2.117610486265148 6.987258455353383 4.778772574429885 -0.35987746966038514
O 4.805022009324563 6.225189880486387 2.4679464583639006 0.7106576596301988
H 5.396984736042668 5.870858378995161 3.0798532804132956 -0.35260347208223497
H 3.893383972527477 6.321875719485284 2.846877723285073 -0.3506426092483089
O 1.0425027803535962 4.0170395686377045 1.3124545566593213 0.6907261684327062
H 0.8342531858102686 4.425062061151514 2.17315558590657 -0.3429688574958836
H 1.2701968561784949 3.115066341672974 1.5514796739805694 -0.34634256804978036
O 7.741444969571205 1.879106534949943 3.291770035627825 0.6945752088309347
H 7.1166063525922665 2.257750454214006 2.6949327102404044 -0.35325539443104337
H 7.841641420459544 0.8909262324852215 3.0444964075154193 -0.34144519239591653
O 4.831112568381652 4.112280020302522 5.906933925773104 0.7152082937670574
H 4.686616383472508 4.9690613999624365 6.2054464955428035 -0.36281019315723584
H 4.3526545338905835 3.4162517256971414 6.347115724373066 -0.3562272330895131
24

O 4.326752172222752 2.3266606248200343 3.4678365506532147 0.6950310848360441
H 4.329149661046514 3.2414969932117477 3.836287161931036 -0.364592964591988
H 4.596910732627042 1.7184106046023426 4.291339466215071 -0.33339621534798347
O 2.21921528558371 0.6460204096601088 1.8552156964530955 0.7169302642492035
H 2.9918602137488555 1.237506446149562 2.0516029868867025 -0.3662071107961883
H 2.4101646247983672 0.08484128266428186 1.0966069099371187 -0.3556112895164344
O 1.9431141611189298 0.9094721824232201 5.427976669211772 0.7372588911196609
H 1.0276316794323417 0.9805504766179015 5.718968208754847 -0.3713204667902045
H 2.233229958148564 1.3210934742034925 4.60916617791911 -0.3740962243204238
O 2.050943992032077 6.436439848488333 4.010162635541023 0.7208606182087187
H 2.3169038702061364 7.0398316895215265 3.274491877095491 -0.34711263273662774
H 2.1172788428562974 6.972032573706548 4.761972959944237 -0.3625277818986661
O 4.805332887019046 6.22288279752764 2.4685270651008255 0.7123308823743975
H 5.398040840928931 5.878103727722483 3.0760922619115356 -0.3539080453669817
H 3.89258816946385 6.32693029858698 2.8405512241799173 -0.35109783389171323
O 1.0433131576194414 4.01745906471731 1.3143721088197473 0.6915849830091001
H 0.8323303719082324 4.4267246744017745 2.166957014136526 -0.34428033070043373
H 1.2759224333474117 3.109125796624112 1.5481932473178057 -0.34585890780134587
O 7.7397869544301665 1.87985373679846 3.292438758942151 0.694944405914308
H 7.118315219632213 2.2657014010683114 2.6967324932546695 -0.35391004914517843
H 7.850478043946249 0.886528926369708 3.0411440205602465 -0.34110832404120484
O 4.830407416776753 4.112171922455902 5.906597288162537 0.7174231399214421
H 4.695237753766037 4.9490610388264615 6.19627319126717 -0.36497883741733617
H 4.354237183060538 3.4145148888325862 6.343087311928706 -0.35635725527015916
24

O 4.326587816297052 2.327493281449395 3.467412226659592 0.6940220133988946
H 4.324109527342639 3.2439902408083814 3.8387758995237213 -0.36461871471758767
H 4.603333491248064 1.714056594063075 4.293972445101708 -0.3326118862256182
O 2.2188429124223363 0.6459068558464587 1.8552606551241368 0.7163267991295084
H 2.995428461182505 1.2447731453085087 2.054063918596647 -0.3662317107480685
H 2.413485348774662 0.07898423668792635 1.096054634549432 -0.3557226375439889
O 1.9440944773973399 0.9098157556516394 5.42773062688183 0.737367709466344
H 1.0263422205552335 0.9809096871709372 5.721676475413091 -0.37047341479063955
H 2.2295352314523558 1.3186558381840319 4.608198467273598 -0.3736731244628393
O 2.0498084778198318 6.43785180852099 4.011253728875209 0.7206826294737292
H 2.319839819456667 7.047518040604737 3.263114516087989 -0.34499814295929365
H 2.116948610983963 6.957681094139752 4.746570221381588 -0.36473073215092444
O 4.8055251780103445 6.220630081458226 2.4690445318647924 0.7138957253127751
H 5.400113632052514 5.884663736410185 3.073563492183547 -0.3549736985102214
H 3.892646549454882 6.331760911413583 2.8340352327668468 -0.351726029644323
O 1.0441230298299695 4.017871803007649 1.3163149257636226 0.6925546475870021
H 0.8304310587661188 4.428456616268215 2.160543111441909 -0.34559185993077923
H 1.2816385608175636 3.1031786632330376 1.544769138167274 -0.3454851626884682
O 7.738171905625067 1.8804751678509257 3.293113421036837 0.6955476390018953
H 7.1195193335617954 2.2739531303207503 2.698061677747231 -0.35447760609764956
H 7.8591841631707196 0.8838444008104319 3.0381732482694104 -0.34109324441293176
O 4.829747016419041 4.111911150332859 5.90617178859932 0.7192110618751089
H 4.703297625349512 4.931385071339214 6.1881579598554834 -0.3666736808072879
H 4.3556132148976054 3.412841943564362 6.339339922387277 -0.3565265795546695
24

O 4.326453839599572 2.3282694487489075 3.467114491201781 0.6934009396244196
H 4.3190922033858 3.246053822931235 3.841061627105369 -0.3646472574163566
H 4.609196743831938 1.71098946273271 4.2947959052280344 -0.3322023715765883
O 2.218514588300123 0.6458179343433842 1.8553226014647963 0.7156925914030505
H 2.998336263706455 1.2514975006765703 2.0563622878702565 -0.36629812383678273
H 2.416854479859124 0.07324651587139683 1.0955691467782653 -0.3557950803692439
O 1.9450945568979217 0.9101319704205073 5.427515569206792 0.7371447323848459
H 1.0251790371802172 0.9815020883813479 5.723969402007877 -0.3696205263390995
H 2.225444683253322 1.3164155950681715 4.607080064328274 -0.37324836523728044
O 2.0486937435731427 6.439221089356565 4.012159021518237 0.7205392430509401
H 2.3222998517516906 7.054619829504303 3.25234644185462 -0.3430053732098103
H 2.11670237186312 6.944776970796195 4.7333889813788375 -0.3664652607002815
O 4.805593512970954 6.218435537148896 2.469488182213268 0.7153117301351819
H 5.403309756737433 5.890486839781434 3.072398968323691 -0.3557851033485492
H 3.8935394152534863 6.336357535628023 2.8273668281426643 -0.3524995901286754
O 1.0449380464367999 4.018262155722673 1.3182723839919002 0.6935825661262085
H 0.8285183543053278 4.4303144491803215 2.1540987720211837 -0.3469051092859162
H 1.2872918277682555 3.09741644254449 1.5411914932239623 -0.3451689128167369
O 7.736601442649978 1.8809664326930937 3.2937929338685685 0.6963353064770705
H 7.1202387525232185 2.2824740109423054 2.6989266367263345 -0.3549358993227272
H 7.86771537023391 0.8829743017952072 3.035594743888527 -0.3413732587253706
O 4.829141182308053 4.11143479220564 5.905634567091493 0.7206493596071135
H 4.710649507874005 4.917039070750448 6.181452614446046 -0.3679693813579581
H 4.3567732829989945 3.41122635305537 6.335884519220231 -0.3567368551374537
24

O 4.3263515205069085 2.328989266841664 3.4669467182220512 0.693202040601602
H 4.314102575613107 3.247637934666374 3.843129575884273 -0.364711798065414
H 4.61447261356273 1.709255170334453 4.293766673692187 -0.33215586256280305
O 2.218238976713347 0.6457546207449638 1.855397996155176 0.7150129665319789
H 3.0004694240475978 1.2575802730842518 2.0584642588465485 -0.366375966419924
H 2.420252181577377 0.06770805731973895 1.0952469424179603 -0.35581462705470535
O 1.9461076135380537 0.910420541019772 5.427336656652844 0.7366808963415885
H 1.0242291062487165 0.9823162771427748 5.725820798097984 -0.36879147678542434
H 2.220978529370829 1.3143968188540704 4.605758066522646 -0.3728549743640188
O 2.0475995445452617 6.440522991858876 4.012810146523102 0.7204717838425845
H 2.324196973119074 7.060957537750271 3.2424409861016277 -0.3412047670585292
H 2.1166286665994103 6.933890058057567 4.723256706007143 -0.3677745673173167
O 4.8055379327076375 6.216300308385188 2.469850791672067 0.7165656813810182
H 5.4076756411139595 5.895560022527495 3.072666942574173 -0.35636303441692296
H 3.8952211246006847 6.340714927447382 2.8205920163134546 -0.35338074975230616
O 1.0457639216881314 4.018614999426103 1.3202332102941643 0.694650571716831
H 0.8265525133466421 4.432358946360893 2.147813826912485 -0.3482358295736858
H 1.2928306282746687 3.0920186381498804 1.5374498989903314 -0.3448781421734617
O 7.735075502238167 1.881326374292076 3.2944753933660196 0.6972566084524934
H 7.120515755030048 2.291219372056227 2.699355542178618 -0.35525541778054603
H 7.876031502653235 0.883981082801131 3.033410591662847 -0.34192773786047803
O 4.828598237176698 4.1106843517465625 5.904964351687296 0.7217406208824548
H 4.717171899749549 4.9069594355349535 6.176482264152117 -0.3688580985988067
H 4.357706866798749 3.4096603409222115 6.332733395590604 -0.3569981199662263
24

O 4.326281563600593 2.3296536029594317 3.4669103407979485 0.6934925254370876
H 4.3091457032343365 3.2487028736460983 3.8449678306699075 -0.36482024015465186
H 4.619142579072201 1.7088778347300801 4.2908698563700085 -0.3325196470580142
O 2.2180231375461203 0.6457170565628544 1.8554833320788346 0.7143675385009391
H 3.0017381704093773 1.2629403223176787 2.0603421959701445 -0.366486107914475
H 2.4236588973193465 0.06244433454547659 1.0951776411146834 -0.355797693886877
O 1.9471276338690484 0.9106812428274121 5.427198357770887 0.736020010957684
H 1.0235679185249718 0.9833410483848448 5.727209305594621 -0.3680068724420672
H 2.216155962549375 1.3126199891718755 4.604185460979853 -0.37248756807856387
O 2.0465246382568707 6.441733902272602 4.013145815929414 0.7204869169959851
H 2.3254620145046436 7.066390138633686 3.2336070729497752 -0.3396830827738143
H 2.116814710554827 6.925536327623962 4.7169326108799146 -0.3686666584703069
O 4.805364290993781 6.2142228359778136 2.470128930897248 0.7176712557494251
H 5.413191117866626 5.899908152079258 3.074366833599826 -0.3567101901304087
H 3.897619951788219 6.344833046166269 2.813765268674284 -0.35437263233137983
O 1.0466062526986926 4.018916176675655 1.3221858662327526 0.695772716272929
H 0.8244927240476196 4.434651827837996 2.141875268549668 -0.3495408347591282
H 1.298206762962571 3.0871474269760832 1.5335403992131769 -0.34467226259709227
O 7.733592447372606 1.8815569771661353 3.2951582026857413 0.6983714002302845
H 7.1204126346334995 2.300131921975992 2.6993959643361953 -0.3554781719275706
H 7.884097494154087 0.8868895818206236 3.0316144218115784 -0.3427752069868236
O 4.828123574004223 4.109617537500176 5.904145285778979 0.7225935323662596
H 4.722792404734452 4.901828826157331 6.173483537652555 -0.36940189591585026
H 4.358400669386018 3.4081327071662164 6.32990163267435 -0.3573568310835846
24

O 4.326244103822117 2.3302639879325064 3.4670049236303693 0.6942906051593087
H 4.304226632783981 3.2492196345958795 3.8465678051896837 -0.36496018572092914
H 4.623197516025798 1.709860648580091 4.286117311796766 -0.33331467346568566
O 2.217872543506748 0.6457046901932006 1.855575244570494 0.7138734590428004
H 3.0020763170026905 1.2675143852695252 2.061974470205132 -0.3666716496583001
H 2.4270560408340796 0.05752452650786797 1.0954419446033992 -0.35576909236502274
O 1.9481495515187015 0.9109140186025794 5.4271042407079015 0.735185672453091
H 1.0232575120659817 0.9845656078859658 5.72811924225488 -0.3672823043768706
H 2.2109945400350126 1.31110100970711 4.602323488838184 -0.3721292039286247
O 2.045467668989281 6.4428367334586785 4.013119400707744 0.7205601447371615
H 2.326042603928602 7.070811634136938 3.2260115461337757 -0.33852391121033976
H 2.1173332303342445 6.920094472405401 4.714985976295454 -0.3691247478131321
O 4.805084237680961 6.212199031084734 2.4703229285821484 0.7186445475543437
H 5.419769288230165 5.903590756146864 3.077430498315142 -0.3568210832691838
H 3.900638518705929 6.3487174944581035 2.8069488502959765 -0.35548694299728156
O 1.0474702973371817 4.019152997577082 1.3241190644189096 0.6969698996848601
H 0.8222992582625976 4.437251893805971 2.136459251580347 -0.3507516447756055
H 1.3033766675843126 3.0829442279292327 1.5294655540973363 -0.3446428815184357
O 7.732149226341712 1.8816632122034502 3.2958382649244764 0.6997043871864235
H 7.120008159891659 2.309143331492294 2.6991119980872638 -0.3556204542933088
H 7.891884230406088 0.8916881033006616 3.0301913810246663 -0.34392474903475656
O 4.827719469189946 4.108212967967973 5.903168337144756 0.7232755494348819
H 4.727491783193422 4.902002314373425 6.172581190901719 -0.36961913570092975
H 4.358837691773716 3.4066271979058156 6.3274078983568245 -0.3578616051244905
24

O 4.326238686174709 2.3308226193833264 3.4672281587698652 0.6955410963096567
H 4.299350271535254 3.2491704838871334 3.847924613656684 -0.36512838586898355
H 4.626638147483582 1.7121857545598527 4.2795474240267115 -0.334481372119358
O 2.2177911423527292 0.6457164216143589 1.8556705725755724 0.7135670917558183
H 3.001440196633206 1.27125673929913 2.0633453634806593 -0.366929144840466
H 2.4304265946208616 0.053009759522783854 1.0961099065027478 -0.35573093215608964
O 1.9491693810848183 0.9111190009519581 5.4270567955725655 0.7342185675282304
H 1.02334509172566 0.9859797024128275 5.728541218288357 -0.3666339803356009
H 2.205509749139732 1.3098503126267087 4.60014366981221 -0.37178739171731023
O 2.044427939562618 6.4438248847173805 4.012704851633542 0.720670723426021
H 2.3259021105059503 7.074148034205104 3.219781240611199 -0.3377454063321136
H 2.1182307700313636 6.917744868965014 4.717701480843239 -0.36918004927081016
O 4.804714756529658 6.210222641192529 2.4704364772774707 0.7194762891710269
H 5.427262593065204 5.906695856115011 3.0817294876457466 -0.35671115545808196
H 3.904155151457907 6.352379834851314 2.8002118619494616 -0.3566898292812565
O 1.0483607363399077 4.019314730747754 1.3260223401547995 0.6982248810285678
H 0.8199358603117375 4.4402108054955916 2.1317230902841575 -0.3518490117179398
H 1.3083021867451812 3.0795276383358594 1.525234068174299 -0.3447937708881633
O 7.730741567242479 1.8816528955386795 3.296512238144713 0.7012231326438834
H 7.1193934398744965 2.318176342058492 2.698580427173536 -0.3556945478431005
H 7.899369506229262 0.8983286639786082 3.029117894285293 -0.3453321745560336
O 4.827384852609559 4.106475843877749 5.902033112309771 0.7237772875937116
H 4.7313078162321585 4.907419020058449 6.173759166912383 -0.3695163144349798
H 4.358997136651387 3.405122129004462 6.325274535149439 -0.35849560263663727
24

O 4.326264219921727 2.3313324068760206 3.4675757829097438 0.6971871666057965
H 4.294521203824494 3.2485491926897057 3.8490372274884725 -0.3653349673851335
H 4.6294760343979755 1.7158130580680913 4.271226387210151 -0.33594702452565883
O 2.217781384623346 0.6457507108011084 1.8557664335833273 0.713420626819717
H 2.9998076745977373 1.2741388226455541 2.06444485534266 -0.36721807391119765
H 2.433755560333082 0.04895194511503511 1.0972398277334403 -0.35567460401384643
O 1.9501842982419935 0.9112965507650723 5.427057303983562 0.7331592082062839
H 1.0238619510969813 0.9875737484612254 5.7284725960317875 -0.36607617813606697
H 2.1997147238487815 1.308872203804885 4.597629432565521 -0.3714812480847899
O 2.0434059264427535 6.44470380620297 4.011899110876028 0.7207821906792622
H 2.325018540250792 7.076354285331358 3.215005535836925 -0.33732749764011993
H 2.1195206610893305 6.9184475890786254 4.725038099713529 -0.3688578697753314
O 4.804277281358553 6.208285766456673 2.4704759655401416 0.7201484591303704
H 5.435474062162482 5.909331837087556 3.0870870327111906 -0.3564156754937984
H 3.9080266601453637 6.35583753903539 2.793628892614424 -0.35792002305898807
O 1.0492814737385692 4.019392964932241 1.3278865773698365 0.6994991022895249
H 0.8173722737899092 4.44356874109839 2.127797105842831 -0.35285595540870207
H 1.3129512866657858 3.0769919011732605 1.5208604995911807 -0.34506453518218916
O 7.729364192116398 1.8815365578701087 3.2971768329387023 0.7028804939232123
H 7.118667491718709 2.327147389827388 2.697886576768609 -0.35571476149779424
H 7.906539102677124 0.9067263362208268 3.0283611013278544 -0.346936418363921
O 4.82711590032436 4.104437065713958 5.900747597002276 0.7240193316885641
H 4.734325143232763 4.9176148539649045 6.176865447502675 -0.3690761991663861
H 4.358855134099261 3.4035914883349068 6.323526821785953 -0.359195547698794
24

O 4.326318902950785 2.3317970685548213 3.4680414269859114 0.6992043766738054
H 4.289743549988347 3.24736109192537 3.849908510353085 -0.36557558222039654
H 4.631735062960278 1.7206781652635228 4.261250609556225 -0.3376886293528625
O 2.21784421827076 0.6458056425698074 1.855860308350235 0.713448927639069
H 2.99717730506027 1.2761488943530332 2.0652683380531736 -0.367526804786357
H 2.4370302836636477 0.0453931546223743 1.0988776662039927 -0.3556115717223637
O 1.9511926708855492 0.9114473027515919 5.427105756527496 0.7320015552617596
H 1.0248227432461252 0.9893389648535409 5.727917800773742 -0.3656121967224407
H 2.1936201688434496 1.3081644850580516 4.594777292500067 -0.3712040879213788
O 2.0424034696057416 6.445490399264044 4.010721406398594 0.7208538161816425
H 2.323383758570882 7.077412096758384 3.211738312763057 -0.33727567725903973
H 2.1211812495106654 6.921954812384864 4.736637207520225 -0.36813503580872187
O 4.803796493008541 6.206379452809357 2.470449650809153 0.7206616643807986
H 5.444172028456535 5.911618482142322 3.093292918320915 -0.35596448301595474
H 3.912092663277569 6.359113535146864 2.787278243314537 -0.359140218301751
O 1.050235474053576 4.019381874968756 1.329704431167058 0.7007859700659358
H 0.8145866557984905 4.447350399990292 2.1247773707027524 -0.3537690701887958
H 1.3172987882376053 3.075405267456996 1.5163651419335649 -0.3454528059640104
O 7.728011023820384 1.881327326045282 3.297829124108034 0.7046662339377288
H 7.117932839533968 2.3359694827877973 2.6971201438777257 -0.3557025215548393
H 7.913387977211491 0.9167581336759801 3.027878091743281 -0.3487061857680196
O 4.8269071512146615 4.102146402363002 5.899326033667184 0.7239218689687645
H 4.736655836280239 4.931827098908428 6.181647317260929 -0.36826535292392437
H 4.358386337677582 3.4020075491889137 6.322191491174242 -0.3599141895986464
24

O 4.326400117474579 2.3322212967091422 3.468616423097662 0.7015499051558176
H 4.285020802182253 3.2456231859303317 3.8505453347667618 -0.3658233736572333
H 4.633453263809157 1.7266897343669563 4.249749621198466 -0.3396923426755569
O 2.2179790896870215 0.6458789671677686 1.8559500854956776 0.713716850447494
H 2.993567795355216 1.2772919365407178 2.0658164853749716 -0.36788054488459987
H 2.440240757091701 0.04236504760028472 1.10105658322724 -0.3555698653451894
O 1.952194056664016 0.9115721106306205 5.427200813107298 0.7306703381527588
H 1.0262252918258703 0.9912674403053532 5.726888444694882 -0.36520711876378187
H 2.187234553247728 1.307718282616924 4.591597432221172 -0.3709240717468083
O 2.041423752597432 6.446211445102363 4.009211206868747 0.7208518800352943
H 2.3210025569988724 7.077329197311706 3.2100000135365825 -0.3376136619855704
H 2.123157233396419 6.927838018916892 4.751852866696819 -0.36696401054830385
O 4.803298977533492 6.2044942724330046 2.4703667909381766 0.7210278711649165
H 5.453106266909483 5.9136782817791085 3.1001191508157135 -0.3553738903563046
H 3.916180066729029 6.362235571873398 2.7812399036922684 -0.3603378680101714
O 1.0512245965742046 4.019278491663031 1.331470697167192 0.7020790390710643
H 0.8115677476427147 4.451561516669762 2.1227201800365787 -0.35452098492852746
H 1.3213269399633416 3.074807660568772 1.511773585581079 -0.346019957999233
O 7.726675351892713 1.8810408234356824 3.298466843307754 0.7065831126482516
H 7.1172915228802145 2.3445549860180916 2.69637130955999 -0.35568079158776655
H 7.919922315219833 0.9282618818694238 3.0276150855836432 -0.350620851555729
O 4.826752181453066 4.099667259895808 5.897787433968457 0.7234180982344891
H 4.7384262933591135 4.949074684416756 6.187777204588176 -0.3670377296629954
H 4.35756635873093 3.4003445514329735 6.321294698504229 -0.36063003120236914
24

O 4.326504290932536 2.3326109991261017 3.4692895530561128 0.7041272540445409
H 4.280355639223308 3.2433641722385635 3.850958779906975 -0.3660560364701182
H 4.63468507485959 1.7337260745197463 4.236889820302447 -0.3418887988538776
O 2.2181839598532904 0.64596812237209 1.8560340505819937 0.7142480003820866
H 2.9890178940465884 1.2775899480348096 2.066095410596374 -0.36828945481744413
H 2.4433799517879398 0.03988816889909852 1.1037964805364664 -0.3555657711096184
O 1.9531891735263354 0.9116720818979264 5.427339815447709 0.7291796933497978
H 1.028050888170116 0.9933519563351373 5.7254034199669395 -0.36490775177947976
H 2.1805645077650246 1.307518060045303 4.588113619359098 -0.370620131242814
O 2.040470479790167 6.446897697616943 4.00741951793853 0.7207108142179102
H 2.317891428235392 7.076134656387161 3.2097800598428377 -0.3383312228610671
H 2.1253734936404416 6.935583163697703 4.7698884553009195 -0.36527829279381896
O 4.8028119733618215 6.202620781118634 2.4702370013583947 0.7212525910708836
H 5.462021408271154 5.915630197719352 3.107332904403476 -0.354668236965361
H 3.9201111137805795 6.3652352622362445 2.7755930840904686 -0.36148671063305193
O 1.052249449898553 4.0190829334357945 1.3331825565201085 0.7034261706746852
H 0.8083163486396509 4.456186776775004 2.121639382476727 -0.35514200714688215
H 1.325025715089783 3.0752130652814365 1.5071159267375591 -0.3467833071292987
O 7.725349943718464 1.8806951265208876 3.299088656054423 0.7085664724646978
H 7.1168416463634 2.3528181877964136 2.6957272842181803 -0.3556405440320376
H 7.926159753625575 0.9410345083683535 3.0275064166284102 -0.3526248913939949
O 4.826644744693628 4.097065222905671 5.896151997502554 0.722442822294521
H 4.73975638207795 4.96833612168744 6.194912109479968 -0.36536609881684723
H 4.356374610171175 3.3985827041390038 6.320859200912607 -0.36130456245337794
24

O 4.326626724763713 2.3329735702479057 3.470046740041829 0.7068196753471754
H 4.275749742685716 3.2406243942275523 3.8511642481289106 -0.3662697238539041
H 4.635504181044383 1.7416308903639925 4.222879239204498 -0.3441723699370064
O 2.2184553013322184 0.6460702343404396 1.8561108801006976 0.7149867841817958
H 2.9835864510450985 1.2770823547719636 2.066116874633488 -0.36872433893097456
H 2.4464441108842387 0.037971422078874634 1.1071036978573492 -0.3555951833819343
O 1.9541798295382395 0.9117485729600308 5.42751884772829 0.7274802398248263
H 1.0302651062645465 0.9955862027304649 5.7234880225193665 -0.36466814267134096
H 2.1736154677317945 1.3075419700445352 4.584362365543291 -0.37029776316700125
O 2.0395473297949223 6.447580315517831 4.0054034488437775 0.7204926757586496
H 2.3140777025538597 7.073879023912716 3.2110384234233065 -0.33937175454666835
H 2.1277444904564815 6.944647785315064 4.789881673075539 -0.36316282883611006
O 4.802362106253135 6.200749927376175 2.470069730033832 0.7213288901768775
H 5.470668864466499 5.917584585750069 3.114707667816513 -0.35389329381775125
H 3.9237109009551334 6.368146624286966 2.7704134088884254 -0.36253092230687367
O 1.0533093140805236 4.018798498099441 1.3348396274682817 0.7047573332745509
H 0.8048460654027412 4.4611886459155015 2.121506782884748 -0.3556216642592752
H 1.328393113428994 3.07660806773052 1.502426125061391 -0.34768225842554323
O 7.7240271358132455 1.8803106991573877 3.2996944274001274 0.7106099683312779
H 7.1166740019702575 2.3606780574049324 2.695269299495691 -0.35565603993714623
H 7.9321317385157215 0.9548306208705891 3.0274734457673187 -0.3546371134618487
O 4.826579002141526 4.094403344089117 5.894439798674976 0.7209509108511531
H 4.740753145744882 4.988620804006393 6.202716932035305 -0.3632743865707888
H 4.3547970395091795 3.3967120289204766 6.3209019265394595 -0.3618686936421116
24

O 4.326761425660449 2.3333181224257085 3.4708707832570163 0.7095404061520154
H 4.271203662201517 3.2374555667587357 3.85118145261365 -0.3664668407687631
H 4.636006390459973 1.7502094290149273 4.207971724961818 -0.3464620854847762
O 2.218788052954825 0.6461820884561215 1.8561796694586497 0.715870781814113
H 2.9773526150888268 1.2758264807254036 2.065898434435698 -0.36915385967855885
H 2.449432963513069 0.03661189153204873 1.110970929657044 -0.3556556964718741
O 1.9551688048298306 0.9118031565055543 5.427732863708115 0.7255675839567133
H 1.0328185572193969 0.997964641788409 5.721173886137192 -0.3644807960668629
H 2.1663923336198585 1.3077624794666771 4.580391671786925 -0.36996210604374313
O 2.03865739369149 6.448287599059975 4.003220975978439 0.720227220183383
H 2.3095993792508405 7.0706333375416035 3.21370550611571 -0.34069133144173647
H 2.130183309878745 6.954513427060766 4.810986241254089 -0.36065762631103426
O 4.8019741748879925 6.198873410265772 2.4698738611047366 0.7212702145186647
H 5.478816969141832 5.9196394268053485 3.1220325071662653 -0.3530970536498713
H 3.9268164852927163 6.371004175555087 2.7657699399150926 -0.3634316246832975
O 1.0544021488433313 4.018431589425486 1.3364437979475652 0.7060535257544502
H 0.80118312926492 4.466508248774059 2.122254629366413 -0.35599230141327165
H 1.3314355071744408 3.078952799089433 1.497741630071769 -0.34866383447204885
O 7.722698917968719 1.8799101704892032 3.300285411458067 0.712627446345373
H 7.116869984752099 2.368060128901735 2.695070246903718 -0.3557038343542993
H 7.937884809668338 0.9693635089278563 3.027424031465114 -0.35659473129994157
O 4.8265497035577205 4.091737326856865 5.892669387133646 0.7189460501478284
H 4.741505710838898 5.009042231086502 6.210888804526812 -0.36082120623228575
H 4.352828253269459 3.394735075965433 6.321431929076307 -0.3622683005001852
24

O 4.326900916416003 2.3336557394090653 3.471741095395623 0.7122139287131497
H 4.266716704929254 3.2339203959939677 3.8510344564993235 -0.36663797809290544
H 4.636312741828097 1.759224630276963 4.192470950786654 -0.34870275125676353
O 2.219175565753476 0.6463000860608129 1.8562399535477903 0.7168932393087941
H 2.970416200008381 1.2738981668492289 2.0654636615659987 -0.36958263567281424
H 2.452349916239124 0.03579472856056688 1.1153772214277076 -0.3557619012622255
O 1.9561597092078116 0.9118375737942477 5.427975846992642 0.7234261480596904
H 1.0356482214623515 1.0004825123239596 5.718498416226937 -0.3643378199955417
H 2.158900250678001 1.3081472767794773 4.576259198121192 -0.3695950242190251
O 2.037802729027333 6.449042691899793 4.0009271192298135 0.7199825684715662
H 2.3045050619914083 7.066492458312001 3.2176813723611657 -0.3422704197610108
H 2.1326092206146616 6.964721761463569 4.83243277205793 -0.3578283741085183
O 4.801670069311293 6.196983923000306 2.4696575569111765 0.7211001922559181
H 5.48625726670967 5.921878580748839 3.129117533521941 -0.3523100445841999
H 3.929286005228068 6.373840788126685 2.7617222348841044 -0.3641787390623702
O 1.055524663771733 4.017991524412589 1.337998900270307 0.7073313058384587
H 0.7973670956073684 4.472067638194009 2.123780810985087 -0.3562563391001913
H 1.3341679044772388 3.082178265760644 1.4931029787491032 -0.34974027564950283
O 7.721356961631679 1.879518207295407 3.300864437307564 0.7145687509002392
H 7.117499349877942 2.3748986821462634 2.695192389931203 -0.3557754876171567
H 7.943482168697252 0.9843053822525173 3.0272516764466033 -0.3584551077346738
O 4.826552084397992 4.089113704014489 5.890857320803081 0.7164596543674366
H 4.742085258432147 5.028844604481191 6.219166106825901 -0.358049320034596
H 4.350473089667665 3.392668794762014 6.322448840569233 -0.36249356976379765
24

O 4.3270360448030045 2.3339997212980337 3.4726335030843978 0.7147487639781345
H 4.262286845559217 3.230092114890299 3.85075179964832 -0.36677147029239865
H 4.636572471789967 1.7683939507169115 4.176733322155581 -0.3508262180519458
O 2.219609598329423 0.6464202229703786 1.8562916947763546 0.7180536820759356
H 2.962897792058896 1.2713922249213565 2.0648424172531756 -0.37002454663852125
H 2.4552023009411523 0.03549287846242278 1.1202879016675833 -0.3559265543555017
O 1.9571568211797454 0.9118536902024923 5.42824099643058 0.7210458852561532
H 1.0386794399434922 1.0031357147268634 5.71550401856499 -0.36422124373142994
H 2.1511454182592757 1.308660310850486 4.572029999335459 -0.36917735237351224
O 2.036984129285944 6.449862681499669 3.9985724571704067 0.7198284536290978
H 2.298853887295303 7.061574880079344 3.2228344402122606 -0.3440755344891915
H 2.134951211036425 6.97488751614585 4.85355404052675 -0.35476978394885994
O 4.80146817708705 6.19507534081428 2.4694281709025407 0.7208394461686292
H 5.492809197696627 5.92437089885876 3.135797926929669 -0.3515537506496499
H 3.931006934930488 6.376685571962847 2.7583177599226985 -0.3647691432080211
O 1.0566724104826655 4.017490308349733 1.3395103267153208 0.7085968726952907
H 0.7934456762934657 4.4777731466959825 2.125955941271823 -0.35640197630684467
H 1.336613963877045 3.086188317632958 1.4885531389349844 -0.35092749352203756
O 7.7199927177477266 1.879160977823875 3.301435946867726 0.7164674908481066
H 7.11861868727483 2.3811383475206385 2.6956854321746784 -0.35595217876882146
H 7.949003719978295 0.9992943153747311 3.0268366310556467 -0.3601698550748015
O 4.826581720257822 4.086569269300868 5.88901801712879 0.7136338668209414
H 4.742546427218995 5.047411991668146 6.227331927273886 -0.3550994317728495
H 4.347747499335741 3.390544978017326 6.323941898219057 -0.3625479282878752
24

O 4.3271559503819335 2.334365521564241 3.473520462808797 0.7170576368765498
H 4.257910654715278 3.2260537798270263 3.8503665273633074 -0.36687565225863883
H 4.636963439401756 1.777391232904423 4.161164424535128 -0.3527479419633076
O 2.2200803555236472 0.6465380930937056 1.8563352626312348 0.7192947918187975
H 2.954938347434784 1.2684224724718516 2.0640710343688564 -0.3704649120724759
H 2.4580016396729665 0.03566685216969505 1.1256545906778352 -0.35613988088239446
O 1.9581648964504474 0.911853456484258 5.428520940651924 0.7185104422248016
H 1.041828350583076 1.0059206844822401 5.712237208780012 -0.36414878574798615
H 2.143135882890891 1.3092629166415124 4.567773990822811 -0.3687296051305583
O 2.036201011342332 6.450758301543276 3.996202570266781 0.7198391614243196
H 2.2927152657098406 7.056023580790803 3.229000350018684 -0.3460354340290891
H 2.1371496799298297 6.984701543390101 4.873795579251255 -0.35163072768822456
O 4.80138272092314 6.193142830411244 2.469192283947829 0.7204997893243223
H 5.498322048098765 5.9271705038310545 3.141935461073394 -0.3508581491847257
H 3.931902991166448 6.379561831574813 2.7555898418647606 -0.3651838944060902
O 1.0578399067189341 4.016942377588203 1.3409845773508458 0.7098742467736019
H 0.7894741675969293 4.483519578427737 2.1286315209509583 -0.3564958207473484
H 1.3388059318747139 3.0908605627667027 1.4841368110695405 -0.35218044865405695
O 7.718597567006413 1.8788653850329802 3.3020059356857128 0.7182397477249889
H 7.12027002929633 2.3867358727588983 2.6965856153446013 -0.3562032218746666
H 7.954545014395534 1.0139446757983814 3.02604814131368 -0.3616847817835267
O 4.826634325331306 4.084131955669061 5.887164026010862 0.7105284195854547
H 4.7429306484121 5.064255104827302 6.235209620458145 -0.35204445229015713
H 4.344678671197439 3.3884095911438856 6.325889647349238 -0.3624205270395957
24

O 4.327248249712752 2.3347702845200473 3.4743717692708014 0.719082942157816
H 4.253583363321135 3.2218968941630157 3.849916006620774 -0.36696984504763386
H 4.637689165447953 1.7858548553053257 4.146207845237195 -0.3544007095627355
O 2.2205765206207504 0.6466488842938416 1.8563714307694292 0.720539236383392
H 2.9466985311883493 1.2651214967036415 2.0631923525007383 -0.37087527299461154
H 2.460763814516079 0.03626488579831467 1.1314155378658617 -0.3563858747270283
O 1.9591889372212865 0.9118388754810649 5.4288079640885325 0.7157831678396094
H 1.0450046221334508 1.008834397146757 5.708747443744767 -0.36402603638536846
H 2.1348822575031234 1.3099150522483651 4.563563300416769 -0.36824881460465253
O 2.0354514747097867 6.451734439593291 3.9938587313496363 0.7200841141973044
H 2.2861687863251636 7.050007306499218 3.2359806541996474 -0.34807045589083807
H 2.1391556920512396 6.993921537461075 4.892705370651983 -0.34857889656974095
O 4.801423440599162 6.191182901898435 2.4689558303056396 0.7200942694061097
H 5.502674628925792 5.930318138600341 3.14741803196986 -0.3502596158031177
H 3.9319394107154046 6.382485174688715 2.7535561792616448 -0.36540004055420106
O 1.059020820722449 4.016364183268485 1.3424287764428768 0.7110368199562516
H 0.7855129378309844 4.4891945411829814 2.131648521724791 -0.3564773781184498
H 1.3407843919481897 3.096047906239012 1.4798998100756338 -0.3534307021076952
O 7.717163098344051 1.8786578934783285 3.302581740756828 0.7198447821120624
H 7.122479905772678 2.3916613711351946 2.697914300537345 -0.3565283140483153
H 7.960213859969393 1.0278644743467111 3.0247490066873453 -0.362958323198311
O 4.826705604709916 4.08182210346866 5.885306375633315 0.7072501495501569
H 4.743269052988002 5.0789930600225714 6.2426570788748 -0.3490116925249829
H 4.341304373737875 3.3863211328898934 6.328260348318997 -0.3620935094650162
24

O 4.327299411999528 2.335232072195772 3.4751556512955486 0.7208013115027521
H 4.249298772446062 3.217720708407324 3.8494417130922303 -0.36706760610080114
H 4.638972800802812 1.793401053519912 4.132327958076827 -0.35575623222247654
O 2.2210853002053375 0.6467473737703558 1.8564013799734334 0.7217509120832739
H 2.9383576927558224 1.2616401331231237 2.062255639846906 -0.3712474503344535
H 2.4635090729659845 0.03722340776405955 1.1374962675095752 -0.35666192883335157
O 1.9602339635909023 0.9118119280267112 5.42909426796324 0.7130018722095004
H 1.048114438520427 1.011873922121338 5.705086301560189 -0.3638964772870251
H 2.126398112675256 1.3105764918135512 4.5594699318858956 -0.3677522062850007
O 2.0347323872422685 6.452790711720356 3.991578802691413 0.7205682661807307
H 2.279304402751122 7.043722508206251 3.2435404025915267 -0.3501176936425269
H 2.140929774884234 7.002361552086742 4.909921115385606 -0.34572521143435986
O 4.801595418540015 6.1891934481852156 2.468724136978533 0.7196440006951421
H 5.5057756128893915 5.933841238431723 3.15215953851213 -0.34978377618878487
H 3.9311254869683103 6.385462097221304 2.7522182150179035 -0.36541378696814386
O 1.060208195335444 4.015773687545024 1.3438501886842797 0.7121565522317197
H 0.7816246005658867 4.494683751521238 2.1348447047895958 -0.35644778390298126
H 1.3425976171975806 3.10158125297974 1.475888525105401 -0.35464678197513266
O 7.7156814699418454 1.8785632154097778 3.303171745063803 0.721274078569544
H 7.125258482902736 2.3958996250504168 2.6996769322064207 -0.3569366572773309
H 7.966125485094139 1.0406749538719562 3.022801277602113 -0.36397155913017176
O 4.826791170279231 4.079653682362641 5.883454865131205 0.7039227096867475
H 4.743585026326294 5.091335996164659 6.249561102229088 -0.34612083662686133
H 4.337671603047405 3.3843481039002894 6.331013014770518 -0.361573714950033
24

O 4.327295507902761 2.335768501617973 3.4758405930926997 0.7222087856279003
H 4.2450494387060695 3.2136304117507817 3.848988858891813 -0.36717627280861
H 4.6410450082279775 1.799647106127662 4.119981192739565 -0.3568103932785066
O 2.2215926735881193 0.6468280661087733 1.8564267083128325 0.722931622130466
H 2.930109957457579 1.2581443519976316 2.061315626211788 -0.37159591820692495
H 2.4662620040075978 0.03846788162915386 1.1438106743950063 -0.356973783552872
O 1.9613047629387972 0.9117745496146743 5.429372178556005 0.7102263612959594
H 1.0510642571483777 1.0150363291115774 5.701306054093281 -0.36374638666401726
H 2.117700353179828 1.3112080334040046 4.555563290732676 -0.3672274991327604
O 2.034039540350053 6.453922150873298 3.9893980084936542 0.7212509235866942
H 2.272221310538231 7.03739250776829 3.251409240357115 -0.35212106755294215
H 2.1424406209504543 7.009881773135804 4.925157046630538 -0.3431445401424037
O 4.801899146165903 6.1871737274396255 2.46850193265596 0.7191667906059287
H 5.507563009834301 5.937755216951147 3.156099432268235 -0.34943653007494646
H 3.929513952558206 6.388489277022782 2.7515614741098786 -0.3652380131914379
O 1.0613946899861502 4.015189800616233 1.3452558135861608 0.7132423242289507
H 0.7778715726881803 4.499875082725694 2.1380619483345185 -0.35640797140983727
H 1.3443004593164285 3.107273598280778 1.472149110665285 -0.35583486093816674
O 7.714145926585811 1.878602670567624 3.303784925423704 0.7225347562108639
H 7.128598835131983 2.3994513134092594 2.7018621237279614 -0.35743880043523424
H 7.972395132155121 1.05203533246258 3.0200743275835635 -0.36471963336615076
O 4.826886512561867 4.077635493029646 5.881618308611126 0.700660270437919
H 4.743896323791498 5.101068924106772 6.25583211518673 -0.3434547041189485
H 4.3338348513776666 3.382565922285716 6.3340988238014715 -0.3608954592509612
24

O 4.327223347680705 2.33639483785058 3.4763977897977285 0.7233130991490815
H 4.240826907123255 3.2097349669224204 3.8486059030145596 -0.36731107004520325
H 4.644125577622575 1.8042435653910809 4.109577393883181 -0.35756086617884464
O 2.2220837549728842 0.6468853871541365 1.8564494167571357 0.7240673341093238
H 2.9221590448387476 1.2548110369498684 2.060431221064659 -0.37192714661101844
H 2.469051377343554 0.03991388547462662 1.1502624580262013 -0.3573171163175368
O 1.9624056350341612 0.9117286117571859 5.429634361885768 0.7075150243229786
H 1.053764834133861 1.0183183322819922 5.697458382774736 -0.3635470519958467
H 2.1088094555516825 1.3117725635651882 4.551907927875725 -0.3666727692500671
O 2.033367803831237 6.455119862727463 3.9873498081807868 0.7220869021661644
H 2.2650266806252586 7.031266586873647 3.2592826609067274 -0.35401186861449807
H 2.143663645256975 7.0163783194240334 4.9381894899523715 -0.34092648133479175
O 4.80233080580451 6.18512429270484 2.4682933089620174 0.7186696811317468
H 5.508003352608565 5.942064843216065 3.1592021501970105 -0.34922191211624276
H 3.9271973098195136 6.391553654560521 2.7515568212531925 -0.364877503510164
O 1.0625728005723993 4.01463184304354 1.346652105805936 0.714267724992822
H 0.7743138324244662 4.504662273418003 2.1411521405152354 -0.3563491731564459
H 1.3459527288594866 3.1129256545319635 1.4687264362219037 -0.3569758818312343
O 7.712551460490245 1.878792349950822 3.30443026867466 0.7236214053442953
H 7.132476326010901 2.40233414532405 2.704440830756662 -0.35803139335426504
H 7.97912821334638 1.0616707925900455 3.0164549485675143 -0.36519883382903284
O 4.826987017980308 4.075772350000144 5.879804742783778 0.6975566172342924
H 4.7442167071125505 5.108036302963956 6.261399209316057 -0.34108229933735157
H 4.3298542691333095 3.381053995563847 6.337462704473275 -0.36008642096812116
24

O 4.32707180802775 2.3371219590267565 3.476803735696262 0.7241327443465495
H 4.236621903681237 3.2061447265780982 3.848343694247234 -0.36749529090883126
H 4.648402030521656 1.8069091514828572 4.101439590069976 -0.35800569878345745
O 2.2225432533555463 0.6469139327710107 1.8564719015218607 0.725118103251035
H 2.914711552970079 1.2518222887325807 2.0596636855415453 -0.3722292099334412
H 2.4719097684258626 0.04146878818134672 1.1567471366631585 -0.35767794998187763
O 1.9635401306217743 0.9116759124046627 5.429874028953631 0.7049555723254495
H 1.0561352326083633 1.0217158900798586 5.693593097146275 -0.3632824111219276
H 2.0997494552297202 1.3122359505896277 4.548561683818407 -0.3661051965889971
O 2.032711406309908 6.4563718702142445 3.9854660386601037 0.7230320674824959
H 2.257832205888539 7.0256136641853 3.2668302055024916 -0.35572120879942737
H 2.1445798894862818 7.021775791834473 4.948846433954782 -0.33916271838586853
O 4.802882682644947 6.183046890011427 2.468101634876135 0.7181558175514904
H 5.507091034767022 5.946764887220235 3.161456564454581 -0.3491525125460735
H 3.9243020554804713 6.39463311893215 2.752162329053146 -0.36432556157055895
O 1.0637350964843737 4.014118950362549 1.3480447628031786 0.7152119437294606
H 0.7710069896417963 4.508947981877352 2.143981815371331 -0.35630429519768547
H 1.3476171195165063 3.1183327590676804 1.465663038003987 -0.35801497596595244
O 7.710895488090963 1.879141525008855 3.3051161849574098 0.7245180778309182
H 7.13684833240141 2.404583734897388 2.707365702387332 -0.35869910026532204
H 7.986409925884018 1.0693968374732392 3.011857282859003 -0.36540689707759366
O 4.827088026707731 4.074065905166751 5.878021514971569 0.6946942713663262
H 4.744557009780175 5.112132219935899 6.266207017267367 -0.33908131537107755
H 4.3257937173579055 3.3798927001450285 6.34104501372439 -0.3591542553855849
24

O 4.326833194518302 2.337954456086346 3.4770426032902417 0.7246917847280352
H 4.2324247499279934 3.2029681081895602 3.8482541708424933 -0.3677439497756737
H 4.654007805318198 1.80746394848962 4.095767484171247 -0.35815574859259425
O 2.2229560927270344 0.6469088523127061 1.8564969998644005 0.7260604326157238
H 2.9079674959466764 1.2493571101460572 2.0590738393266355 -0.3724947255789738
H 2.4748729825755844 0.043033937140107635 1.1631545069040787 -0.35804963211024377
O 1.9647108070661599 0.9116181670983617 5.430085115285629 0.7026395019591394
H 1.058106571574188 1.0252237996452829 5.689756981644633 -0.36295341031061956
H 2.0905478524282963 1.3125679247098248 4.545574000998581 -0.365536236622959
O 2.0320642782522067 6.457664069451314 3.983776667073169 0.7240105537003401
H 2.250749787380053 7.020713341977895 3.273706944692174 -0.3571993668139055
H 2.145175131716727 7.026021357023254 4.9569993224305495 -0.33789244201013857
O 4.8035436512624665 6.180944335347415 2.4679294278176855 0.7176324169725157
H 5.504847785387463 5.951840879734395 3.1628757183226797 -0.34923628842077914
H 3.9209814478031904 6.397697681845569 2.75332554210287 -0.3635846750108075
O 1.064874503486751 4.01366933922894 1.3494385583873547 0.7160842297674435
H 0.7680007082588135 4.512646264296596 2.146435527744771 -0.35632225725917843
H 1.349356534551427 3.123293390476478 1.4629981198314743 -0.3589116873895063
O 7.70917845269177 1.8796515146694743 3.3058499815625395 0.7252216897590957
H 7.14165414526823 2.4062540394840637 2.7105708835966866 -0.3594306233457376
H 7.994295596385028 1.0751368211982115 3.006231415476233 -0.3653492860238663
O 4.827184895232027 4.072515318129748 5.876275342020985 0.6921591063839945
H 4.7449260637117145 5.113292522268258 6.270213081541775 -0.3375267731883993
H 4.321718758979101 3.37916029742617 6.344783251658528 -0.3581126134328628
24

O 4.326504268001967 2.3388894769002855 3.4771077357014955 0.7250130923420364
H 4.22822592424518 3.20030755991746 3.8483887370236722 -0.36805649044150723
H 4.66100482226012 1.8058516701438587 4.0926152415907575 -0.3580344846931429
O 2.2233081018860243 0.6468662360680585 1.8565279956879939 0.7269089136800568
H 2.9021101199722925 1.2475821858631433 2.0587189234883945 -0.372735929014946
H 2.4779791046166753 0.04450768662735645 1.1693720180611438 -0.35843810588033975
O 1.965919027083847 0.9115570073738709 5.430262419665731 0.7006214833345463
H 1.0596254601394617 1.0288352757224801 5.685992809199981 -0.3625581459279592
H 2.0812351723354108 1.3127425516201785 4.542984938457232 -0.3649552606945802
O 2.031420495103571 6.458981455040525 3.9823091319403656 0.7249193341242763
H 2.2438854790647484 7.016841903611159 3.2795711972594077 -0.3584158978764763
H 2.1454390901769362 7.029079505403229 4.962555577296866 -0.3371023857825206
O 4.804299724467322 6.178820366575088 2.467778181672168 0.717107463777453
H 5.501322405169988 5.957269886158046 3.1634969285417287 -0.34946275212528033
H 3.917407056047343 6.400711135915136 2.754986077248093 -0.36267672356011593
O 1.0659845921842885 4.01329954632874 1.3508372454643598 0.7168961504970761
H 0.7653375035231337 4.515684442085718 2.1484181380497627 -0.3564160522314369
H 1.3512309910249758 3.1276186976149143 1.4607665446755842 -0.35966425439715743
O 7.707404234862174 1.8803152432320815 3.306637482257046 0.7257394318578738
H 7.146816394682525 2.4074174746451495 2.7139720339221896 -0.36021750955684817
H 0.0028035373822810072 1.0789290158936007 2.9995690938373603 -0.3650400942443378
O 4.82727307190948 4.071117779577536 5.874572321211707 0.6900248849644983
H 4.74533129098436 5.111488696540875 6.273385965364513 -0.33645856284162123
H 4.31769476648089 3.3789304034943073 6.348613787974028 -0.35699810530948395
24

O 4.326086801412865 2.339916470036355 3.4770021223023844 0.7251071570523209
H 4.224016705784053 3.1982551131679493 3.8487963982893576 -0.3684263648014464
H 4.669374585827938 1.802148324746914 4.091885811504096 -0.35765851782959435
O 2.2235867210364364 0.6467834605001889 1.856568559357116 0.727680908485302
H 2.897296176508961 1.2466428839489958 2.0586495498781363 -0.3729682252266495
H 2.4812672597733982 0.04578893847421373 1.1752887350579349 -0.35884792922513087
O 1.967164810603595 0.9114939959295134 5.430401704158676 0.6989217949970847
H 1.0606568819306845 1.0325414977134422 5.682338588116059 -0.3620799013246391
H 2.071845440608588 1.312739110163918 4.540823550663141 -0.3643486862266919
O 2.030774703526254 6.46030933025715 3.9810875213496053 0.725680539044913
H 2.237333188203646 7.014256713714953 3.2841041667217694 -0.3593459837159164
H 2.1453648142900024 7.030927961404439 4.965452550111321 -0.33678408988573105
O 4.805134615988465 6.1766794776773715 2.467648172077858 0.7165809894595021
H 5.496590675779906 5.963021094100902 3.1633821785105547 -0.34981064266870465
H 3.9137599724644683 6.40363301692295 2.757078313797494 -0.36162704865673034
O 1.0670598416092976 4.013023724015935 1.352243526369577 0.7176314721622765
H 0.7630517799890364 4.51800449340451 2.149856510763131 -0.35656605857409074
H 1.3532942437799875 3.1311426167539658 1.4589977687242097 -0.3602760545535886
O 7.7055802744236175 1.8811175907062403 3.307482845587018 0.7260705524164195
H 7.152240962393795 2.4081637291084066 2.7174679469339886 -0.36104177546788796
H 0.011911673838541291 1.0809218874946829 2.991905557245959 -0.36449379389018444
O 4.827348178840649 4.0698688910883964 5.872917897476347 0.6883359703287839
H 4.745779080609037 5.106724301845923 6.275704196392849 -0.3358847972790896
H 4.313785264146163 3.379269687701617 6.352473368590226 -0.3558495146205285
24

O 4.325587465481191 2.341018045252231 3.4767376291202505 0.7249706704397625
H 4.21978992424032 3.196887543368934 3.8495216377738206 -0.3688464107527625
H 4.6790187855848275 1.7965535423940004 4.093345241091505 -0.35703073872360214
O 2.223781784346935 0.6466595676752886 1.856622677228212 0.7283676800476293
H 2.8936452941799327 1.246653206133529 2.058906292754003 -0.3731919191455427
H 2.484776099850489 0.046781125046385236 1.180799716652263 -0.35927311137853024
O 1.968446740594828 0.9114306487881738 5.430499764396018 0.6975603955837193
H 1.0611861552651873 1.036331207761433 5.678827092505394 -0.36150347306960995
H 2.0624148231528663 1.3125420329399726 4.539107774973591 -0.3637207921372101
O 2.030122613818446 6.461634726614267 3.98013117112184 0.7262700580517492
H 2.2311670118871354 7.013175487625207 3.287035987537836 -0.359969075268997
H 2.1449483440100283 7.031555339555051 4.9656540971266265 -0.33695763762857833
O 4.806030278434417 6.174526746763923 2.467538263013543 0.716043908273704
H 5.4907552503940495 5.9690565508617865 3.1626186327494237 -0.35026096018953345
H 3.910222431038865 6.406420663258817 2.7595339611222633 -0.3604509511637465
O 1.0680958681475166 4.012853037265169 1.3536590548397602 0.7182669322077568
H 0.7611690790910786 4.519564004498596 2.1507006657985137 -0.356771835087233
H 1.3555905770246943 3.1337311817317772 1.4577149640986218 -0.36072440074207135
O 7.703717353684556 1.882036496841287 3.3083885890231364 0.72619824477551
H 7.157820718217658 2.4085981910990784 2.720942111347315 -0.3618726824891576
H 0.021558602971787095 1.081358382129356 2.9833171038969106 -0.3637218359715646
O 4.8274060958488905 4.068762875900624 5.871316786306579 0.6871169712063558
H 4.746274917526915 5.099033787068109 6.277156116887583 -0.3358146438824736
H 4.310050533633843 3.3802360441583787 6.356300400543453 -0.35468439295556564
24

O 4.3250171459512385 2.342171662010363 3.4763333341833076 0.7245961138137889
H 4.215540781831031 3.1962615146062148 3.850602123711806 -0.369304132573944
H 4.68976948607626 1.7893684762030162 4.0966514177141855 -0.3561549666395488
O 2.2238861800794067 0.6464955289525425 1.8566945509333639 0.7289485580269122
H 2.891231246469871 1.2476871817174393 2.0595167111821695 -0.3733985239577954
H 2.4885420085280816 0.04739661544910936 1.1858106983179852 -0.35970490365391616
O 1.9697619309272718 0.9113684499647213 5.4305544692139796 0.6965630777670364
H 1.0612197534559473 1.0401904425021218 5.6754856986622295 -0.36083128496003525
H 2.052981418901719 1.312141145759584 4.5378439471131315 -0.3630847403474533
O 2.0294614201636474 6.4629477280705165 3.9794532135956695 0.7266800868226535
H 2.225434853953591 7.013756704450921 3.288170197221596 -0.36027460638544084
H 2.1441885047784637 7.0309598013440615 4.963148772765817 -0.33762748795793973
O 4.806967376206266 6.17236767050241 2.467445749880801 0.7154863870224366
H 5.4839452413660945 5.975331916127841 3.161318910461795 -0.35079436822503585
H 3.9069707266198037 6.409031087205373 2.762284243470124 -0.3591641730761824
O 1.0690896524790972 4.012795080564871 1.3550844437919054 0.7188025925059631
H 0.7597055778533252 4.520336716477721 2.150924232074568 -0.3570632965705096
H 1.3581517383751263 3.1352910996668166 1.4569343942284176 -0.36097964096055235
O 7.701829070595971 1.883044622008371 3.309355790556654 0.7261064059375155
H 7.163438340609768 2.4088391114892556 2.72426580003751 -0.3626776216576513
H 0.03164868863140373 1.0805523761328504 2.9739149391920403 -0.36273844650323783
O 4.827443038008165 4.067792600616365 5.869772854816074 0.6863800742911774
H 4.746823355488363 5.088483540757196 6.277740587669148 -0.33625559995996046
H 4.306546381245445 3.381877115601426 6.360036101692379 -0.3535095027582953
24

O 4.32438972249215 2.34335200092375 3.4758131415950895 0.7239818716969586
H 4.21126767296958 3.1964092714424894 3.8520665059610772 -0.36977498615057514
H 4.701407731335427 1.7809623349804493 4.101394130894774 -0.3550532974195346
O 2.2238963098130595 0.6462943375130997 1.8567884516992086 0.7294183022961966
H 2.8900764252035978 1.2497729638172148 2.060493261109074 -0.3735872831612309
H 2.49259714688931 0.047561150068314406 1.1902426994129378 -0.3601416599087113
O 1.9711060714650668 0.9113088568947688 5.430564761745406 0.6959278452819235
H 1.0607850368735596 1.0441024177183849 5.672336515760976 -0.3600734420929995
H 2.0435847300237144 1.3115317073069632 4.537026711974417 -0.3624390908289038
O 2.0287900688849545 6.4642424871776765 3.9790593429106704 0.7268922653898373
H 2.220154355334018 7.016084089968384 3.287402913278645 -0.3602611271994376
H 2.1430869075984065 7.029148806617137 4.9579498141473115 -0.3387571456257652
O 4.807925700099516 6.170208004393064 2.467366260646277 0.7149013947637888
H 5.476315215777961 5.981797419264714 3.1596208674028783 -0.35137885684197145
H 3.904169607462651 6.411422575865947 2.7652616466462128 -0.35779879764212663
O 1.070039729937283 4.012853420908214 1.3565192572791862 0.7192478551840942
H 0.7586677399710142 4.520312885597703 2.1505245589115614 -0.35745258307242744
H 1.3609945737201223 3.135775933810455 1.4566651470405279 -0.3610393429708624
O 7.699931051685331 1.8841113335600186 3.3103843788562095 0.7257953662467429
H 7.168970602046489 2.40901370756262 2.7273022479289253 -0.36342945768313417
H 0.04206024037570935 1.0788610716235274 2.9638363924133326 -0.3615692310548291
O 4.827455627331404 4.066949429888814 5.868288958569634 0.6861269765384217
H 4.747427929803433 5.075175364478309 6.277468545507061 -0.33718995228484006
H 4.303323004911579 3.3842288177778066 6.363625525722643 -0.35234562346059073
24

O 4.323720686257711 2.344533380488357 3.475203377036069 0.7231370095783609
H 4.206972879050904 3.197335471765223 3.8539325326747376 -0.3702291582814283
H 4.713684762873136 1.7717373130368634 4.1071350563939575 -0.35376420797426134
O 2.223812301330508 0.6460609061253638 1.8569085210599159 0.7297817255017383
H 2.890150379748158 1.2528905559124377 2.0618324629866254 -0.3737653280413722
H 2.4969675525591137 0.047217742764606614 1.1940360274636572 -0.36058368964999377
O 1.9724735492499508 0.91125330764137 5.430530620991305 0.6956118177324342
H 1.0599289975235737 1.0480475320234597 5.669396799812526 -0.35923100867667734
H 2.0342650850500936 1.3107143058030013 4.536639139782595 -0.3617728195445137
O 2.0281093153278222 6.465517737507401 3.9789470207524222 0.7269055835778107
H 2.21531173986189 7.020157459087892 3.2847338994402686 -0.3599302790391391
H 2.141648183956819 7.026140042631546 4.950096859136009 -0.34030102088629566
O 4.808884516344518 6.168053613522251 2.4672936377686145 0.7142797194471431
H 5.468044589516044 5.988398726531772 3.157687887609616 -0.35197053492559527
H 3.9019673613037664 6.413556200801828 2.7684014805030643 -0.3563970661061949
O 1.0709463007421527 4.013027373384168 1.3579620032117155 0.7195943633063455
H 0.7580520290220057 4.519499531718949 2.149522827429092 -0.35791346563848725
H 1.3641196106284963 3.135189322588757 1.456909112718437 -0.3609217975468898
O 7.69803997127492 1.8852048071727714 3.311473415289912 0.725275379505075
H 7.174293916913509 2.409252832437928 2.7299123804091794 -0.36410177301984503
H 0.05265552042236367 1.0766569812155335 2.9532347162050203 -0.3602497006393661
O 4.827440964981887 4.066222951393888 5.866866730821695 0.686332153790344
H 4.748090620880131 5.059250922805498 6.276365544525333 -0.33856387676245214
H 4.300424370210579 3.3873152251713585 6.367018385798565 -0.3512220257068117
24

O 4.323025778389043 2.345691927737396 3.4745306252033217 0.7220765025583551
H 4.202663049851099 3.1990155210511073 3.856205740617031 -0.3706419384099783
H 4.726343085008803 1.7620960017460081 4.113443379818746 -0.35232729840547505
O 2.2236379644602615 0.6458017470351054 1.8570585063259484 0.7300260901988038
H 2.891372617992534 1.256973495396687 2.0635154511765785 -0.37393211035143836
H 2.5016712886326173 0.04633007442456093 1.1971537185818193 -0.361022501329359
O 1.9738576303959732 0.9112032279157153 5.430452997705596 0.6955591004956649
H 1.058716057244451 1.0520035098363896 5.666679579048406 -0.35830106109331816
H 2.02506305879661 1.309694575251583 4.5366531151672955 -0.36108798464042824
O 2.0274215505494255 6.466776684273214 3.9791052607129718 0.7267687021719622
H 2.210863965999769 7.025891938896198 3.280267121643705 -0.359284547194201
H 2.13988040963221 7.021963511578309 4.939659262075076 -0.3422375296789679
O 4.809822977938939 6.165910300022695 2.467219974196042 0.7136047424238021
H 5.459334876153943 5.995078423115301 3.155707075716253 -0.35252665660882454
H 3.900492065314859 6.415397094620129 2.771643124477701 -0.3549935599443239
O 1.0718112457769213 4.013312043489516 1.3594101300062156 0.7198211877443705
H 0.7578446851253043 4.517920506833356 2.147964133274127 -0.35841890803472487
H 1.3675107635644463 3.133584860681109 1.4576612091788375 -0.36063356616969144
O 7.696172615445603 1.8862937464321035 3.3126211977607976 0.7245529641810546
H 7.179290615090816 2.4096846687504074 2.731961597644238 -0.36466396992779737
H 0.0632892983607539 1.0743069437588337 2.942270669774883 -0.35881682467948384
O 4.827396711684412 4.065600586401289 5.865506315426269 0.6869394006951224
H 4.748811493014506 5.040899547484616 6.2744752127814145 -0.3403068437458372
H 4.297887355776937 3.391147215281662 6.370169809980888 -0.3501533902552856
24

O 4.322319962897065 2.3468070487430612 3.473820237627207 0.7208242540604783
H 4.198349409732274 3.2013956385248346 3.858879027706111 -0.37099484342834044
H 4.73913261856318 1.7524179590020943 4.119920168518526 -0.35078487594611496
O 2.2233804820111525 0.645524486147585 1.857241495385881 0.7301181830612615
H 2.893619182319905 1.2619141242729854 2.065509750751921 -0.37407449940852877
H 2.5067168721195863 0.04488492484352986 1.1995838510176398 -0.36144223940213727
O 1.9752506847152365 0.9111600262598935 5.4303337332436445 0.6957235038074767
H 1.0572250031657917 1.0559457141643926 5.66419441008118 -0.35729349271277755
H 2.016018915871852 1.3084827823323568 4.537030014807875 -0.36040164962786103
O 2.026730429928358 6.468026279894737 3.979514949719155 0.7265560181377047
H 2.206743950497959 7.033126058690691 3.2742002947397078 -0.3583299981989503
H 2.1377957221305413 7.016664943514048 4.926741413702119 -0.34454698934154215
O 4.810720610493842 6.163783614746085 2.4671358220300204 0.7128574179452372
H 5.450404596702834 6.001778029203406 3.1538849848510075 -0.3530112274095508
H 3.8998489495493316 6.416915461579748 2.774930971107299 -0.35361426197629553
O 1.0726380669413655 4.013698588875967 1.3608600044468904 0.7199180133583192
H 0.7580216013334238 4.515616370437686 2.1459173561308305 -0.35896907970300407
H 1.3711362842140857 3.1310623338694525 1.4589099663047889 -0.36016461255209153
O 7.694344957720954 1.8873489053097576 3.313825287077869 0.7236334845055699
H 7.183855453090095 2.4104279075702855 2.7333271696610604 -0.3650862271697146
H 0.07381694977005109 1.0721548037915556 2.931104717506545 -0.35730729399270345
O 4.827321181377617 4.065067085198093 5.864206036306365 0.6878701513160241
H 4.749587895152365 5.020366630859669 6.271863725985309 -0.34234221266373654
H 4.295741099469378 3.395722190763011 6.373040894551607 -0.3491375226587128
24

O 4.321616785368985 2.347862170235922 3.4730954960025087 0.7194232337513173
H 4.1940476923876835 3.2043946856503953 3.8619327380323627 -0.37127053850197556
H 4.751821025971869 1.7430459625215373 4.126211575420567 -0.34919704645663985
O 2.2230498770322775 0.6452372790960386 1.8574596930928942 0.7300282161424332
H 2.896732066004171 1.2675716655425493 2.0677719860799577 -0.37417938453456634
H 2.512102155006177 0.04289336037115958 1.2013404458248484 -0.36183019416947937
O 1.976644446488696 0.911125076123663 5.430175458471821 0.6960551421540817
H 1.055545316802791 1.0598476395648666 5.661948221247063 -0.3562316558787403
H 2.0071720748933877 1.307093351178749 4.537721596601674 -0.35972595519864103
O 2.0260403620201513 6.469275967990065 3.9801495224367853 0.7263558341721228
H 2.202867859914912 7.041637005029628 3.2668055558785714 -0.35708226918577635
H 2.135411252291835 7.010310983513835 4.911490921550558 -0.347202985324364
O 4.811557808559788 6.161678678304664 2.467030508344692 0.7120259339719117
H 5.441483017945837 6.008440132390787 3.1524419028010775 -0.35338922389282956
H 3.900118730330273 6.418087325399939 2.7782150765348566 -0.35229089208995856
O 1.0734317603291241 4.014174663923096 1.3623068862258965 0.7198882777574469
H 0.7585484414505971 4.512643913472167 2.1434744619019805 -0.35956603375514207
H 1.374950873377221 3.127760659698989 1.4606384386060014 -0.359516819246643
O 7.692571358687164 1.8883442748117392 3.315082454178006 0.7225590509993003
H 7.187901585058777 2.4115851997162188 2.7339054338168385 -0.36537006276576334
H 0.08410112571607958 1.0705091520853631 2.919890694631591 -0.3557634567016481
O 4.827213456132531 4.0646037346541615 5.862961930791082 0.6890345961058162
H 4.750413391395028 4.9979665673656 6.268626423860915 -0.34457684921530374
H 4.294006208755548 3.4010235040818957 6.375599554175444 -0.3481769181369967
24

O 4.320927950398979 2.3488450528835227 3.472377101243261 0.7179335196586631
H 4.189777777706854 3.207907648515437 3.865335548076438 -0.37145251054750006
H 4.764200849242107 1.734277563080004 4.132016090271911 -0.3476397023868887
O 2.2226583387057355 0.6449482131470172 1.8577142581120742 0.7297495622042769
H 2.9005302704902522 1.2737820736162402 2.070251189292325 -0.37424555086691913
H 2.5178138270515 0.04039039219474045 1.2024627648560968 -0.36217982471423815
O 1.9780302944948027 0.911099695443223 5.429981468421496 0.6964803517159635
H 1.0537732880688855 1.0636814883386492 5.659946164632631 -0.3551378299032796
H 1.9985605945486158 1.3055442923003986 4.538671116044614 -0.35906108698814965
O 2.0253559443000477 6.470536125822227 3.9809759577242745 0.7261399031194344
H 2.1991431331260425 7.051160113106253 3.258404921891148 -0.35557253399080824
H 2.1327499610241554 7.002994956023479 4.894107084542199 -0.35004091533776294
O 4.812316485892986 6.159599979355958 2.466892680407135 0.7111070602529879
H 5.432800840618731 6.015011051819501 3.1516026389391345 -0.35362385428426957
H 3.9013565751185997 6.418895095450569 2.7814516870989356 -0.3510640856477205
O 1.0741986218639836 4.014725026079088 1.3637449304543956 0.719732709916576
H 0.7593810235841111 4.509075280431238 2.140749273633458 -0.36018315681267465
H 1.3788985657610051 3.1238488051961064 1.4628252221343845 -0.35871823299373773
O 7.690863911602011 1.8892579236667868 3.3163884987520995 0.7213358104410408
H 7.191366341055113 2.41323650270589 2.7336191913746677 -0.3654746093259539
H 0.09401648087798517 1.0696364313197444 2.908771420573184 -0.35423678315651297
O 4.8270735080322 4.064187557809422 5.861767241040268 0.6903618062486283
H 4.751276574062679 4.974095764250075 6.264895062981862 -0.34692249473954806
H 4.292693988797295 3.4070200153129693 6.377821366823838 -0.34728755186166793
24

O 4.320263171727698 2.349747648935973 3.4716830333934503 0.7164160882382267
H 4.185563039003874 3.211810435510079 3.8690460636059525 -0.3715311336464372
H 4.776092513508997 1.7263627316174537 4.1370852513107215 -0.34618198679922585
O 2.222219589441634 0.6446648560355662 1.8580052389706811 0.7292834612332713
H 2.9048197547595374 1.2803671541111898 2.0728918877346185 -0.3742764025140113
H 2.523827645027221 0.03743304578053855 1.2030130131167243 -0.36248407247374814
O 1.9793995354264138 0.9110851299862238 5.429755581997435 0.6969111200413645
H 1.0520081409261732 1.0674187885560142 5.658192422315617 -0.354022256032103
H 1.9902207114042227 1.3038565030934566 4.539814689428973 -0.3584039893180988
O 2.0246814025973805 6.4718163320690545 3.9819558148139094 0.7260066624406736
H 2.1954760116232372 7.061409479235662 3.2493446014396126 -0.35384152696780957
H 2.1298421507978063 6.994843348033236 4.874850902800151 -0.35301961450869246
O 4.812980845006511 6.157551167023504 2.466711002078792 0.710095893573357
H 5.424579052146717 6.021443572022582 3.151584854293271 -0.3536841991635301
H 3.9035910187020715 6.419328143242358 2.78460385202346 -0.34996545091374676
O 1.0749460038714096 4.015332219854084 1.3651672596736095 0.7194636750833805
H 0.7604660158200459 4.504996572414714 2.1378756435817845 -0.3607773684805611
H 1.382915752837047 3.1195166462256854 1.4654453267844145 -0.35782525848046676
O 7.689231986859401 1.8900725038538295 3.317738040510474 0.7199734378098848
H 7.19421501546838 2.415434218677403 2.732423643773737 -0.3653692022376931
H 0.10345256113498306 1.0697583388196905 2.8978760448253 -0.3527730254099556
O 4.826902330987242 4.063790528027288 5.860611860590174 0.691708042596632
H 4.7521598955324595 4.949245449815313 6.260845570719316 -0.3492174347113537
H 4.291805673685823 3.4136656969829593 6.379690399785655 -0.346485459359273
24

O 4.319630290411375 2.350565554722269 3.471028742383601 0.7149256638621324
H 4.181429513759487 3.2159654102069397 3.873014733988592 -0.3715071926238672
H 4.787343307294571 1.7195071052008788 4.141218670436502 -0.3448749953038883
O 2.221748228946815 0.6443938663629095 1.8583315723669949 0.7286231977140973
H 2.909403214574611 1.2871437342157406 2.0756372074432865 -0.37426629626368335
H 2.530109209984916 0.03409739277741888 1.2030729885024816 -0.3627323240220528
O 1.980743662415114 0.9110825405809873 5.429501996709875 0.6972859578384163
H 1.0503483783878074 1.0710310213417369 5.656690899231125 -0.35290185082297576
H 1.9821864691247717 1.302052940573756 4.541082960406694 -0.35776553336932615
O 2.0240201388905694 6.473123733912232 3.983045527099519 0.725996485501488
H 2.1917768741054573 7.072093916301499 3.239975259184175 -0.3519400285020231
H 2.1267270356208225 6.986026059578969 4.854060027569465 -0.3560430877254185
O 4.8135381114652 6.155534882361116 2.466474876739508 0.7089870257160615
H 5.417018241412931 6.027699101966228 3.152587062240878 -0.3535500910237894
H 3.9068230074746553 6.419383349852503 2.7876419417023213 -0.34901326673123645
O 1.0756820216998872 4.015977360201238 1.3665660986641948 0.7190184058914917
H 0.761742054640826 4.500505735066853 2.135004609152697 -0.36132721382271105
H 1.3869346808307392 3.114965256072651 1.4684708887539146 -0.3567976540559388
O 7.687682050927836 1.8907753360164326 3.3191243034372193 0.718519840918256
H 7.196443435295098 2.4181993611380848 2.730310117753328 -0.36507441878949354
H 0.11231442473003773 1.0710538708114103 2.8873195419111064 -0.35140607908445043
O 4.826702094729784 4.063378802593871 5.859481720761887 0.6929449569679753
H 4.753037763944621 4.924014602354033 6.256707323537964 -0.3513292604604531
H 4.291331588964741 3.420899336167745 6.381200300174042 -0.345772241808632
24

O 4.319035425242565 2.3512974184062885 3.4704273203082088 0.7135226138538451
H 4.1774049154647095 3.2202273158715142 3.877186021903164 -0.3713880793610699
H 4.797826079217742 1.713875381926282 4.144259155645075 -0.34376697215294627
O 2.221259092254489 0.644140698427462 1.8586911553906271 0.7277651440856563
H 2.9140889324479393 1.2939321050621557 2.0784316840300425 -0.3742072793133526
H 2.536615209224687 0.030474844135629904 1.2027399999651442 -0.36291293098866273
O 1.982054579025754 0.9110929875792855 5.4292251386552595 0.6975735275377766
H 1.0488884945544887 1.0744902696629581 5.65544576846285 -0.35180710351116184
H 1.9744894351449067 1.3001577553697448 4.542403016695794 -0.3571600169704703
O 2.0233743451403283 6.47446148557908 3.9841965977929226 0.7261123683331134
H 2.1879646438898175 7.082931800134622 3.230633629040956 -0.3499301805211432
H 2.1234544567577958 6.976766727784638 4.832163927702545 -0.3589901683419995
O 4.813979355681472 6.153552606135539 2.4661753414669936 0.707781617581638
H 5.410285908492071 6.033749766699858 3.154773836754315 -0.35320958594103136
H 3.911025516716984 6.419065458580603 2.790544218668376 -0.3482213288081798
O 1.0764152469367616 4.0166409166403705 1.3679329552066122 0.7184308263397994
H 0.7631414266664094 4.495709622541198 2.1323002700222826 -0.3618227457946669
H 1.3908865006551192 3.110396965779643 1.4718724897869 -0.35568057798946795
O 7.686217615621661 1.8913583947753123 3.3205390818446348 0.7169888956010295
H 7.1980777634258475 2.421520590428653 2.72730775356973 -0.36457885290060255
H 0.12052357098610395 1.0736604723153123 2.877201793308164 -0.3501686065336508
O 4.826476275842254 4.062912346493718 5.8583582982671425 0.6940146491696333
H 4.7538759751941715 4.89911633122465 6.252769330651573 -0.35319638439008394
H 4.291250072872658 3.4286440449171405 6.382355569351111 -0.345148828984011
24

O 4.3184831590372745 2.35194433869308 3.4698896945156927 0.7122800517916494
H 4.173517734734085 3.22444858078305 3.881500746162239 -0.3711862502875787
H 4.807437290297314 1.7095955088594317 4.146087478513083 -0.3429121647050476
O 2.220766738660369 0.6439094960988246 1.8590810135341935 0.7267357341083382
H 2.9186969741614037 1.3005621263108504 2.0812232324136737 -0.3741029623026889
H 2.5432951293593407 0.026667789965585907 1.2021221579337218 -0.36302333572864465
O 1.9833248041982798 0.9111173860198392 5.428929499438036 0.6977502334286012
H 1.0477159747820017 1.0777698918236016 5.654461919720401 -0.3507698761727941
H 1.9671584606125085 1.2981954221788226 4.543700474014782 -0.3565903591909828
O 2.0227447328714216 6.475827456734427 3.98535544985232 0.7263302376476919
H 2.183969368560807 7.093661359590836 3.2216299855534523 -0.34788616792614757
H 2.120086655041999 6.967353534751517 4.809698647239638 -0.36173218822572095
O 4.814300212037689 6.15160456608039 2.4658059232340794 0.706490072497761
H 5.404505281761229 6.039579589670304 3.1582616672382073 -0.3526546315550865
H 3.9161432860459406 6.418387378760001 2.793297354698294 -0.34760554196633575
O 1.077154389402331 4.017303450446007 1.3692588875309692 0.7177136981905148
H 0.7645921648964152 4.490720579093892 2.129934746465285 -0.36224420701342985
H 1.3947044858397084 3.1060068706436077 1.4756198347310312 -0.35450807775110016
O 7.684839400752872 1.8918180172105714 3.3219728061908973 0.7154035897042763
H 7.199172078290359 2.4253556225182797 2.7234821873746995 -0.3638791681165805
H 0.12801764109698768 1.0776773514935933 2.867607864502772 -0.34909469006206184
O 4.826229675882988 4.0623458356860285 5.857218687968129 0.6948527760540468
H 4.754632265220511 4.8753638305055045 6.249378046790645 -0.35473224847794993
H 4.2915264009903735 3.4368069242783763 6.383172716309349 -0.34463452394066074
24

O 4.317976716299726 2.3525093327555484 3.4694248034639648 0.7112631618987688
H 4.169796352841065 3.2284840769977556 3.8858981360629135 -0.37091717199688157
H 4.816095070570882 1.7067625101370776 4.146617648776096 -0.342352350821464
O 2.220285040010435 0.6437031046355466 1.8594975026089735 0.7255865171259901
H 2.923063681331053 1.3068778101362524 2.083964607405217 -0.37396675866417717
H 2.55009327534279 0.022784925575867768 1.201333481797407 -0.36306680123979884
O 1.9845476439068699 0.9111565527373402 5.428619466185134 0.6977958357418201
H 1.0469088401885145 1.0808451187812882 5.653745290540886 -0.3498119851992276
H 1.9602195243182714 1.2961898389447164 4.544901694678792 -0.35605334815677336
O 2.0221303420781007 6.477213110639456 3.986463097638048 0.7266175639765324
H 2.17973352792345 7.104047856640047 3.2132394502521078 -0.345887965619335
H 2.1166999002888036 6.958149988494886 4.7873210529421355 -0.3641598332801381
O 4.814501372447121 6.149689722903972 2.465363314678388 0.7051234712632446
H 5.399747355736545 6.045184533961584 3.163107725991032 -0.3518803439812187
H 3.9220929878628286 6.4173703346209505 2.7958969149989037 -0.34717636985707756
O 1.0779079641211844 4.017946323651303 1.3705348907544026 0.7168705288431281
H 0.7660209176518846 4.485651927225144 2.128081377256197 -0.3625587118914324
H 1.398326500804666 3.1019762054450712 1.479682371305344 -0.353318344835314
O 7.683545629019449 1.8921544786847049 3.3234147643355936 0.7137974703038616
H 7.199803966244741 2.429634905718065 2.718931679563968 -0.3629890498077658
H 0.13474998344800157 1.0831686654916985 2.858608359548039 -0.3482116599347824
O 4.825968361475081 4.06163048219746 5.856036119255233 0.6954340180470524
H 4.755258196062976 4.853640738853832 6.246928120930018 -0.35587955274254035
H 4.292111913943237 3.4452790138845444 6.383681337757676 -0.3442583191724632
24

O 4.3175181453168445 2.352996827775836 3.469039755571667 0.7105177113371925
H 4.166268185952522 3.2321955589300746 3.890317899057002 -0.37060080330563827
H 4.823737295003551 1.7054423089111233 4.145792407815366 -0.342104029730379
O 2.219826845493173 0.6435231510448033 1.8599365144905569 0.7243659012284269
H 2.927044937868938 1.3127407731718699 2.0866144805016176 -0.37380575918034986
H 2.556950927661968 0.01893665852021023 1.200489203741802 -0.3630433595630357
O 1.9857173230663507 0.9112111811002825 5.4282991563449725 0.6976890985999138
H 1.0465336833123209 1.0836935864667039 5.653303101952879 -0.3489386755064633
H 1.9536956981153926 1.2941634154534463 4.545936086034767 -0.35554225340693435
O 2.021528572679037 6.478603276467432 3.9874553598354985 0.7269410464157693
H 2.175211664948248 7.1138866035275 3.2057001851413944 -0.34401237179852107
H 2.1133842641743694 6.949596898648874 4.76580756501739 -0.36619644153970665
O 4.814588784065616 6.147805837053529 2.464847767198151 0.7036667652292172
H 5.396027321587607 6.050571360935022 3.1693031717633198 -0.35086668132413157
H 3.928763654057358 6.416043944459426 2.798347820495855 -0.34693101258932946
O 1.0786839562259338 4.018552351071338 1.371752373504 0.7159050190785738
H 0.7673563080934915 4.480612829976157 2.1269067873501886 -0.36274180945888257
H 1.4016967536359204 3.0984660105219715 1.4840298202464421 -0.35214139376753895
O 7.682332399104691 1.8923714920055181 3.32485344839692 0.7122007979229217
H 7.200068899236063 2.434266857109542 2.7137814770729234 -0.36192946182573704
H 0.14068934605984326 1.0901661683048725 2.850259577019117 -0.3475353267568472
O 4.825699376025901 4.0607181895543 5.854781695260183 0.6957651346026976
H 4.7557044095522985 4.8348355608677505 6.245833967239573 -0.35662291037701765
H 4.2929434242754185 3.4539356363147196 6.383924955682422 -0.3440391842842664
24

O 4.3171084485908615 2.3534122703399776 3.4687399212622867 0.7100811841687087
H 4.162958959749525 3.2354552131982217 3.8947019644035348 -0.3702622351522623
H 4.830320299658823 1.7056743821621936 4.143580172032245 -0.3421691056641195
O 2.219403809718842 0.6433702449674752 1.8603937025997954 0.7231127903763763
H 2.9305168422908707 1.3180312506327916 2.0891376700439013 -0.3736188517049277
H 2.5638083687363813 0.015231064919269933 1.1997017008696873 -0.3629479808513745
O 1.98682906900096 0.9112818511134986 5.427972273790968 0.6975247390916415
H 1.0466441159440616 1.0862958349128073 5.653143983288254 -0.3482053320469918
H 1.9476072024898976 1.2921362374503889 4.546738366923521 -0.3550992810047542
O 2.0209353716366074 6.4799766565001935 3.988264226033572 0.7272552499878662
H 2.170369885724356 7.123001481831694 3.1992117965039992 -0.34231844654040045
H 2.110241110772047 6.942203053098884 4.746034099703649 -0.3677960761261926
O 4.814573515520814 6.145949606566553 2.464263130922145 0.7021730982077816
H 5.393306071302195 6.055755340802866 3.1767719819994067 -0.34967105009282295
H 3.9360175231851877 6.4144461469713585 2.8006647716108404 -0.34685553551432136
O 1.0794894933241395 4.019106394857437 1.3729036764304094 0.7148226822287811
H 0.768532605511299 4.475702878287816 2.1265622050900013 -0.36278805824851945
H 1.4047673404918082 3.09561607976691 1.488632636410527 -0.3509899219803114
O 7.681194071809504 1.8924756846227726 3.3262769427526755 0.7106320300896731
H 7.200074447883069 2.439143574187575 2.7081775747544943 -0.3607176101210693
H 0.14581956988856332 1.0986716876358877 2.8426036231107017 -0.34707217898556997
O 4.825430334612867 4.059566378099398 5.85342670541517 0.6958714477018237
H 4.755927232179732 4.819764069248512 6.246492617518822 -0.3569796088933479
H 4.293943040758146 3.462637374058432 6.383961502321886 -0.3439819489256144
24

O 4.316747680432438 2.3537618258968176 3.4685289981675966 0.7099911279565025
H 4.159892118390986 3.238148357158916 3.898995871571166 -0.369925973942852
H 4.835817979169231 1.7074737623502654 4.139972762400696 -0.34254992581179533
O 2.2190262868565447 0.6432441727995343 1.86086467051752 0.7218871729148582
H 2.933375499898316 1.3226482187725628 2.091505020022306 -0.3734101744354965
H 2.5706065645191365 0.011773052421015444 1.1990774781338616 -0.362788344173941
O 1.9878791906090094 0.9113690153276962 5.4276419492407575 0.697318789999938
H 1.0472796794812134 1.0886357670976194 5.653277988801757 -0.34762579710245955
H 1.941971502058008 1.2901253236246002 4.547250797445455 -0.35471949960639737
O 2.0203456863802116 6.481307665966617 3.9888210624198344 0.7275336618173598
H 2.1651849666929497 7.131246113136725 3.193935685798466 -0.340868394621231
H 2.1073768638477888 6.936516474519977 4.728924839009257 -0.36894493247286897
O 4.814471245368627 6.14411687522616 2.463616559095891 0.7006263738082008
H 5.3914958714626025 6.0607576607510385 3.1853757360879658 -0.3482793756256415
H 3.9436920008166547 6.412622756445784 2.8028722908181485 -0.3469372940182709
O 1.0803305601256161 4.0195956984320995 1.3739825650907906 0.7136487738142925
H 0.7694932935828855 4.471007124240267 2.127175061232779 -0.3626966225538797
H 1.4074994154856686 3.093540793115341 1.4934624061334203 -0.3498915699144389
O 7.6801236715403665 1.8924760563722307 3.327673383806358 0.7091121843261516
H 7.19993405416933 2.44414734698558 2.7022794590416153 -0.35937344045679476
H 0.1501394266821834 1.1086592132634292 2.835668375903027 -0.3468268269530096
O 4.825168851571162 4.058143975398078 5.851945842004935 0.695763326565257
H 4.755897371612479 4.809072287189805 6.2492326616643386 -0.35694796957650965
H 4.295018491912999 3.47123173826766 6.3838633801162095 -0.3440952699369868
24

O 4.316434992292331 2.354052206858051 3.4684090476848866 0.7102724895717749
H 4.157088418549634 3.240175028943303 3.9031496982677996 -0.36960963383181833
H 4.840221594519972 1.7108322574889812 4.13498397784802 -0.3432439888017821
O 2.218703220151505 0.6431440689689449 1.8613451343859766 0.720759119430811
H 2.9355370035370605 1.3265097204803438 2.0936933824975132 -0.37319061337752946
H 2.577288779652247 0.008657076170888805 1.19871442232674 -0.3625755238902282
O 1.9888651049737933 0.9114730120323796 5.427310614646947 0.6971091150142847
H 1.0484651259648439 1.0907010220329643 5.653716589664059 -0.3472218103289917
H 1.9368034361674071 1.2881440234239363 4.547425127722835 -0.35440687037822494
O 2.0197541674081347 6.4825696348913935 3.989061860829177 0.7277716194357271
H 2.1596429508773825 7.138502941213176 3.1899959049208104 -0.33971843202269236
H 2.1048929179328035 6.93307446732297 4.715368309839576 -0.36966383330171215
O 4.814301471659605 6.142302879305268 2.4629179205681915 0.699039393470865
H 5.3904702725497105 6.065602243566741 3.1949234076380004 -0.3467100166877649
H 3.9516029806906867 6.4106265745656765 2.8050042468998404 -0.347159694182129
O 1.0812117393218423 4.020010549371921 1.374984718936066 0.7124019378422575
H 0.7701945475602265 4.466591523072076 2.128840828764698 -0.36245662882678575
H 1.4098638545876572 3.0923274924409827 1.498492230192313 -0.34887719143731577
O 7.679113248485618 1.8923834801630361 3.329031434840267 0.7076755725649746
H 7.199761155133987 2.4491570633940785 2.696252836775266 -0.3579293602151832
H 0.15366268657410156 1.1200764952172881 2.8294672038507986 -0.34680280851506917
O 4.824921742940434 4.056438947177774 5.850321646095461 0.6954515490756024
H 4.7556110996487995 4.803113888493075 6.254244729357877 -0.3565349485529442
H 4.296064616961179 3.4795562582917072 6.383716451294532 -0.3443794420560773
24

O 4.316168624424596 2.3542905968148014 3.468380482070858 0.7109239365864641
H 4.154565598203897 3.241451085321833 3.907118784024452 -0.36932592519400576
H 4.8435402544464266 1.7157187163730345 4.1286491815202 -0.3442292462233113
O 2.2184420885327625 0.6430685817125026 1.861831044053864 0.7197841463597354
H 2.936936911073138 1.3295526683154688 2.0956854544731427 -0.3729652793422329
H 2.5838019618243058 0.005967104756065367 1.1986997446947674 -0.3623187644782567
O 1.9897853505928826 0.9115940730400732 5.426979894700879 0.6969037367894166
H 1.0502100603934068 1.0924832514990102 5.654472626226347 -0.346994382699627
H 1.9321153789056302 1.2862015450478719 4.547224216284816 -0.35415807580295533
O 2.019155871274806 6.483738160038711 3.9889325927069534 0.7279582739890453
H 2.1537387548759233 7.144682664511102 3.1874798814166825 -0.3389119065494164
H 2.1028754608626303 6.932350828237732 4.706132177327638 -0.3699720146982972
O 4.814086417525787 6.140502503305424 2.462179009738085 0.6974267353753552
H 5.390076149281148 6.07031287794443 3.2051848970928676 -0.3449942656948166
H 3.9595495597912653 6.4085160446369445 2.807102789970969 -0.3474956166279225
O 1.0821359971750169 4.020344424880227 1.37590815742224 0.7110676647492038
H 0.7706081818973948 4.462499333378813 2.1316160671901327 -0.3620362380674039
H 1.4118416269268192 3.092035794045607 1.5036969969065939 -0.34796509178720936
O 7.6781541683042365 1.8922102795958935 3.3303407305640214 0.7063607584680833
H 7.199664226566432 2.454053839317025 2.690263159168727 -0.3564279893790786
H 0.15641847668987088 1.13284613435497 2.823998380579277 -0.34699556695459566
O 4.824694659310901 4.054459764299168 5.848546245523698 0.6949106950688697
H 4.755092802025385 4.801922074804375 6.261556754238849 -0.3557321185302357
H 4.296966696797372 3.4874434907076077 6.38361720767266 -0.34481346535677715
24

O 4.315945850862281 2.35448462761325 3.4684419894335163 0.7119220843670553
H 4.152337123784774 3.241909305680323 3.910864452665088 -0.36908457204346323
H 4.845802156109828 1.7220783514654268 4.121025865482493 -0.3454670085282051
O 2.218248893527964 0.6430160208498127 1.8623186722561142 0.7189996053655097
H 2.937529366944789 1.331732224378032 2.097469463188184 -0.37273447449600294
H 2.590097854747042 0.003775074369368665 1.19910862053631 -0.36202770581742016
O 1.9906395858285404 0.9117323161520198 5.426650543950725 0.6967798008288888
H 1.0525088337279211 1.0939783259303317 5.655560214291927 -0.3469791353806959
H 1.927917411905929 1.284302647583798 4.546623263400904 -0.3540087951558091
O 2.018547486582377 6.484797453642693 3.9883990862895113 0.7280933362708639
H 2.147475271288642 7.149723417418808 3.1864395280938016 -0.3384648102179292
H 2.10137704817835 6.934655698519016 4.701705641944219 -0.3699075736272036
O 4.813849855830155 6.138710535757424 2.461412697772869 0.6957968065679663
H 5.390146209885043 6.074910877739778 3.2159061060024547 -0.34316874153150245
H 3.9673199330461255 6.406353491959019 2.809216720476016 -0.3479078844687975
O 1.0831045502898076 4.020594135088572 1.3767535130508946 0.7096973435727012
H 0.7707234994723148 4.458749310714623 2.135513706971005 -0.3614843541122633
H 1.4134239379607338 3.092697502917438 1.5090536584889238 -0.347158031581721
O 7.677237300948872 1.8919699118766309 3.331592244490318 0.7051881545438836
H 7.199743235978885 2.4587252556513253 2.684470678798223 -0.3549086009268547
H 0.15845281885490253 1.1468663077198855 2.819244209865595 -0.34738388911149887
O 4.8244917787706285 4.052235197584663 5.846622419779273 0.6940767498046068
H 4.754394898113943 4.8052062284894035 6.271021578927445 -0.35451529869924725
H 4.297605438669552 3.4947277010025344 6.383668293854721 -0.3453530056229128
24

O 4.315762878212075 2.3546424205503413 3.4685904195821955 0.7132329721445907
H 4.15041370583259 3.241500114840562 3.914354527442371 -0.3688889364770187
H 4.847056557189921 1.729831299521379 4.112194995331221 -0.346916940996046
O 2.2181281568565128 0.6429844657232853 1.8628046785983978 0.7184085891520013
H 2.937286197222611 1.3330211464965616 2.099038872336942 -0.37247395474996947
H 2.5961338055857586 0.0021399201999034055 1.2000033697028183 -0.3617178646567065
O 1.991428555594612 0.911887765668259 5.426322385008011 0.6967004848164209
H 1.0553407266036399 1.0951864526217863 5.656994604073314 -0.34715875414113107
H 1.9242174716913691 1.2824475373083386 4.5456105839732945 -0.35394374135613504
O 2.0179277538172187 6.485742714301797 3.987450196246962 0.7281682914797827
H 2.140861994794421 7.153590012670942 3.1868921833479384 -0.3383829452276508
H 2.1004109561782585 6.940098613448515 4.702248027136427 -0.3694828595634094
O 4.813616038688442 6.136921906399763 2.460632272725891 0.6941561493088522
H 5.390509088774263 6.079413616311147 3.226821840715373 -0.3412703958423924
H 3.9746986594278546 6.4042028740517205 2.81139913199588 -0.34835873373127846
O 1.0841168241217873 4.020759813818081 1.3775241165990595 0.7082776058613678
H 0.7705481149213439 4.455335293808267 2.140501539596631 -0.36078136606747424
H 1.4146123264005943 3.0943165692610144 1.5145415730831353 -0.34646202328840625
O 7.676353161306927 1.89167669372479 3.332778629012771 0.7041693290710533
H 7.20008672428223 2.4630690307646885 2.6790260827182513 -0.35340484676342265
H 0.15982757781255313 1.1620113999837562 2.815169998865129 -0.3479415651270862
O 4.824315709260187 4.049811056754083 5.844563064148306 0.6928662700774104
H 4.7535930119145835 4.812395696987554 6.282331423962332 -0.3528642487795106
H 4.2978633463546 3.5012527284940824 6.383972582029723 -0.345930515143807
24

O 4.315614706498869 2.3547726734535144 3.4688206419623735 0.7148086916753482
H 4.148802142842534 3.240192112190546 3.917563763128885 -0.36873460710924333
H 4.847376277600664 1.7388706822604834 4.102262848903173 -0.3485366784925934
O 2.218082911210934 0.6429718129552239 1.8632861375143135 0.7180906337883384
H 2.9361962812252504 1.3334093030741172 2.100392020785054 -0.37224670636965007
H 2.6018732688022275 0.0011072046116556511 1.2014331991288503 -0.36140889422341305
O 1.992154058509959 0.9120603341840025 5.425994310672631 0.6966367354840473
H 1.0586703805709305 1.096112183125541 5.6587920551063196 -0.3475250300549295
H 1.9210214516375512 1.2806319863065305 4.544187802277664 -0.35395624560724215
O 2.0172977854554217 6.486582161802441 3.98610039863555 0.7281561436289417
H 2.133913915158507 7.1562736300357805 3.188821376582334 -0.3386657844479184
H 2.0999470168651753 6.94855658209153 4.70754678319469 -0.3686698818815012
O 4.813408542357752 6.135131926242468 2.459850842429788 0.6925161693201192
H 5.39099888484061 6.083833612884902 3.2376687625282567 -0.3393408500535824
H 3.9814757491985047 6.402126875667241 2.813704044023282 -0.34881211752272645
O 1.0851704987251052 4.02084478359563 1.378225879588614 0.7068237718421173
H 0.7701072075084623 4.452228200805062 2.1465035744622534 -0.35993224687799596
H 1.4154186210178143 3.0968694130663774 1.5201428554017622 -0.34588659551345247
O 7.675491990577986 1.891345583992136 3.3338944873282395 0.7033165316565009
H 7.200769772933182 2.4669957645227516 2.6740671394547566 -0.3519515192193756
H 0.1606221101808823 1.1781327649397793 2.811723067721404 -0.34864077971524643
O 4.82416762521688 4.047244123577326 5.8423889450772775 0.6912583937134125
H 4.752776824231107 4.82272810823883 6.295060528951241 -0.3507795640959197
H 4.29763176901238 3.506879925435761 6.384626369629337 -0.34651956992403066
24

O 4.31549491748744 2.3548848254953256 3.4691253355692724 0.7165915069844824
H 4.147505072024251 3.237972498118584 3.9204742568098956 -0.3686175581086194
H 4.846861272365347 1.7490596256271542 4.091363917931908 -0.3502764067699723
O 2.2181146889571997 0.6429758130724634 1.863760559384134 0.7180170875643217
H 2.9342653218225974 1.3329037439284208 2.101532488765315 -0.37202352894150226
H 2.6072863903278956 0.0007085757618500437 1.2034337735392746 -0.36112044841839774
O 1.992818896447883 0.9122498127015046 5.425664311773731 0.6965447303826457
H 1.0624485925879865 1.0967642872418157 5.6609696679722346 -0.3480636208655936
H 1.9183332388065382 1.2788476328945666 4.542369504129419 -0.3540413335606133
O 2.016660637974248 6.4873350437334265 3.9843860783809033 0.7280311873280902
H 2.1266507652323114 7.157791643112509 3.1921779265594883 -0.3393010636811685
H 2.099919291589397 6.959705889886568 4.7170755095781844 -0.36742335819076133
O 4.81324916423794 6.133336504607101 2.4590808994133213 0.6908978513109156
H 5.391462739666996 6.088178234274152 3.24819635608178 -0.3374328580640785
H 3.9874564868968254 6.4001837191970194 2.816182400356963 -0.3492317809518233
O 1.0862616406996397 4.020855296666544 1.3788669927662816 0.7053452920843584
H 0.7694415614784903 4.449379541049158 2.1534045425414896 -0.35894415332770724
H 1.4158647730873246 3.1003055750134756 1.525842694355412 -0.34543269228361384
O 7.674643750546998 1.8909920646681846 3.3349365863299827 0.7026419247274245
H 7.201852981110624 2.470430543601041 2.6697166427740844 -0.35058728691119667
H 0.1609343749794561 1.1950590866826343 2.8088314037899336 -0.34944880028707637
O 4.824047554015164 4.04459357559938 5.840124772204476 0.6891772895719939
H 4.752037295269412 4.835377059313695 6.308735261206759 -0.34825033380179315
H 4.2968189941504455 3.5114964277634306 6.385711271177251 -0.34705164579027914
24

O 4.315395464197006 2.3549891935724863 3.469494797698896 0.718500765775939
H 4.14652075409593 3.234847522143247 3.9230759413892216 -0.3685299986071586
H 4.845642123345601 1.7602286945538976 4.079663409441915 -0.35207040153508196
O 2.218223504373691 0.6429940967180159 1.8642259052223904 0.7181743347559244
H 2.9315156447346373 1.3315285596070587 2.102468974457361 -0.37180929304271326
H 2.6123504951072025 0.000961416087613582 1.2060269592522157 -0.36086825365072617
O 1.9934268071578671 0.912455860232526 5.425329545155466 0.6963622400303
H 1.0666134514191201 1.0971554972047726 5.663545152345499 -0.3487482052445374
H 1.916154690710444 1.2770824231077846 4.540182396519054 -0.3541930868799261
O 2.016020914977818 6.488029686542043 3.9823620718036707 0.7277885741808823
H 2.119096311066745 7.158187732956882 3.1968810148122717 -0.3402513168249254
H 2.1002332166802127 6.973052896643672 4.730047765752361 -0.3657192624298392
O 4.813157005177875 6.131532337801455 2.4583341382429778 0.6893221336046682
H 5.391765349133913 6.092449943526477 3.2581741695778326 -0.3356022248110898
H 3.992471252189409 6.398423901091879 2.818877764436396 -0.3495797561274405
O 1.0873849060957335 4.0208001891237375 1.3794574715359356 0.7038415922523802
H 0.7686045746150986 4.446726124020871 2.1610568195120488 -0.35782702642764963
H 1.4159825758498066 3.104548557130246 1.5316296729822134 -0.3450880431689055
O 7.673798107186447 1.8906320119051538 3.3359039704385323 0.7021162563296448
H 7.2033822943230374 2.4733135398583355 2.6660814006729328 -0.34932119763681546
H 0.16088144001915308 1.212597810930108 2.8064028542339847 -0.3503205722740148
O 4.823954335907923 4.041916440308801 5.8377972692809905 0.6865909915472519
H 4.751460020411591 4.849517722596082 6.322872638088726 -0.3452948271542654
H 4.295357682056789 3.5150219563854685 6.38728649955612 -0.3474734226619207
24

O 4.315306422738069 2.3550971259269557 3.4699167232720876 0.7204468023391151
H 4.145842853757804 3.2308429272771044 3.925367089596692 -0.36846325048681927
H 4.843884161922413 1.7721729396118333 4.067360166027583 -0.3538469362488338
O 2.2184078248905017 0.6430241709452872 1.864680594865772 0.7185450127670425
H 2.927986217095952 1.3293250035405715 2.1032154737896467 -0.37161578399610007
H 2.6170505374099977 0.001868632195033621 1.209220631913228 -0.3606674474596081
O 1.993982372765319 0.9126779928552031 5.424986437485577 0.696016607567419
H 1.0710918415394801 1.0973021377942431 5.666536532766554 -0.3495472794600104
H 1.9144855810006962 1.2753212048968277 4.53766403795485 -0.3544029755718211
O 2.01538355997523 6.488696735644963 3.980090974683373 0.7274361672146803
H 2.111277502169423 7.157532507947942 3.2028187019366676 -0.34146979875553507
H 2.100785554411402 6.988040819164582 4.745585884840382 -0.36353872125945064
O 4.813147716658767 6.129717067521398 2.457621361962604 0.6878057425523609
H 5.39179217775641 6.096646790728346 3.2673974878952223 -0.3338964332579252
H 3.996384241193051 6.396887216098919 2.8218221938899335 -0.3498232649442268
O 1.088533773756396 4.020690499296185 1.3800086488120746 0.702314245519853
H 0.7676589519849274 4.444194929957243 2.169288115447367 -0.3565979476224408
H 1.4158132709155387 3.109496947394687 1.537496106400304 -0.34483502668765686
O 7.6729444895757855 1.8902814547607152 3.336798019240113 0.7017829118332217
H 7.205388709745172 2.475600810628693 2.6632507954959235 -0.3482400068274245
H 0.1605990128682533 1.230538054593422 2.804325463779333 -0.35120597775311335
O 4.823885651127923 4.039263155218043 5.835432987082381 0.6836004352417113
H 4.7511189647863095 4.864392978793534 6.3370214391130535 -0.3420562798538028
H 4.2932106025259715 3.5174132619842498 6.389382647533683 -0.34774079485058806
24

O 4.315215792585413 2.355221071390822 3.470376059094625 0.7223528242321635
H 4.145460288896923 3.2260042904510664 3.92735487483707 -0.3684146873795717
H 4.8417907561543245 1.7846503501121131 4.054688308928035 -0.35554243909496785
O 2.2186645276686603 0.643063393675255 1.8651235125092214 0.719101585132008
H 2.923732802956951 1.3263517184242448 2.1037915358774124 -0.3714501681730402
H 2.621379528926239 0.003418536899789987 1.2130084903624407 -0.3605317435525699
O 1.9944909022732975 0.9129155725584136 5.424630816322391 0.6954429975536522
H 1.0758013893752305 1.097223644529313 5.669961792097475 -0.350431386930417
H 1.9133235078828081 1.2735464746199203 4.534861183394355 -0.35466279903724784
O 2.014753360255177 6.489366107534552 3.977638473425255 0.72701842583738
H 2.1032236704764076 7.155924448968174 3.2098481324266737 -0.3429084123621464
H 2.1014730668597186 7.004097419452948 4.762794611019729 -0.3608982297342116
O 4.8132329451515306 6.127889403630541 2.4569525285804743 0.6863691695822551
H 5.3914508178618625 6.100763132771952 3.2756905497098074 -0.33235670218944635
H 3.9991009819036627 6.395600111571235 2.825032371008477 -0.3499402159092314
O 1.0897008136585509 4.020539032978049 1.3805326167901149 0.7007757763539684
H 0.7666730969371744 4.441708155692395 2.177910021949956 -0.3552798944683
H 1.4154069335186121 3.115026154988435 1.5434383223975392 -0.3446609070686769
O 7.672072115141439 1.8899563806679163 3.3376224979110067 0.7015794003957998
H 7.207887945135692 2.477265055870779 2.6612963542138557 -0.34732022490670666
H 0.16024128668011178 1.2486530381670191 2.8024674586808915 -0.3520596602292043
O 4.8238379555897675 4.036675565935584 5.83305724130586 0.6802484567078815
H 4.751074378342509 4.879343154468892 6.350782534733808 -0.3386071463422735
H 4.2903738772129865 3.518665677625814 6.391997884719181 -0.34782401841708643
24

O 4.315109281565627 2.3553746369320643 3.470854857341252 0.7241470503097069
H 4.145356997216244 3.220397644937976 3.92905604237806 -0.3683828490861828
H 4.839606890353823 1.7973802840305506 4.0419187700380155 -0.3570978121275623
O 2.2189888428151807 0.6431089306403994 1.8655540003826554 0.7198070936464895
H 2.9188284551667882 1.3226852965992029 2.1042226881728383 -0.3713124200066311
H 2.6253389235803706 0.005584745013618371 1.217369891410293 -0.3604725493722467
O 1.9949582888254518 0.9131678012101069 5.424258064769819 0.6945956698614446
H 1.080652903726283 1.0969419609249498 5.673838401333795 -0.3513733100168738
H 1.9126637411021379 1.2717392107403858 4.531827817402056 -0.3549676030876583
O 2.0141344314324283 6.490063594983711 3.9750682238057506 0.7266045325263484
H 2.0949656771791676 7.153490603955353 3.217795946457056 -0.3445149475562014
H 2.102201597551772 7.0206883590049465 4.780841903303195 -0.35785353562503486
O 4.813420047490913 6.126049192344406 2.456336926809311 0.6850390051598179
H 5.390670287818258 6.10479046566023 3.282906865313203 -0.3310232618428216
H 4.000573562211119 6.394573761856296 2.8285065630247814 -0.34991607969088856
O 1.0908779736982464 4.020359892468927 1.3810416634168208 0.6992388133825458
H 0.7657174352053158 4.439188135140052 2.186726868532941 -0.3538997071247557
H 1.4148215723220305 3.1209909466008248 1.5494567758500075 -0.34454923796441406
O 7.671170158617786 1.8896723505358448 3.3383834274281794 0.701491821947509
H 7.2108805223300605 2.4782959683547103 2.660270683194027 -0.34658223911714736
H 0.1599781682639894 1.2667059479070484 2.8006801389710154 -0.3528414494986154
O 4.8238064791443875 4.034186255135267 5.830693543719367 0.6766234701516964
H 4.751372206786846 4.893818316019012 6.363819224608191 -0.33505898553008706
H 4.286877547947739 3.5188117942794417 6.3950968135543205 -0.3477014693384297
24

O 4.314970394123705 2.355572295617 3.471332486216961 0.725762311334414
H 4.145511898516001 3.2141097231388844 3.9304976381834384 -0.3683676092908085
H 4.8376176428258635 1.8100478700496616 4.029355100295587 -0.35845696990277076
O 2.2193743207304046 0.6431577313358278 1.8659718497769449 0.7206189072587716
H 2.913363804863962 1.3184206435085088 2.1045408359207243 -0.3712005900170614
H 2.62893898787075 0.008326172392119234 1.2222700240505882 -0.3604951770074417
O 1.9953908387683268 0.9134337254675138 5.423863296930687 0.693454487130847
H 1.085553293936151 1.0964808321396722 5.678182734765527 -0.35234529979419527
H 1.9124990646714288 1.2698797197716882 4.528623015968984 -0.3553172448113562
O 2.01352999958689 6.490809018144238 3.9724391760516595 0.7262764992743165
H 2.0865349590584152 7.150387306814527 3.226458548447947 -0.3462266710504648
H 2.102890479781653 7.03734565142038 4.799000824242674 -0.354504834023736
O 4.813711988028501 6.1241974237820935 2.455783243272234 0.6838423792429602
H 5.389400640079072 6.108718164704355 3.2889298251222714 -0.3299333563038851
H 4.000802614834006 6.393803215495862 2.832222984355038 -0.34974039037768456
O 1.0920568720472623 4.020167987921485 1.3815477616779224 0.6977085582743638
H 0.7648610174307722 4.436561642162011 2.195543969622787 -0.35248742893227525
H 1.4141218532833264 3.127228970006912 1.5555559243016068 -0.3444731582960803
O 7.670228058836616 1.8894439627437796 3.339088800721211 0.7015166176825212
H 7.214351803325383 2.4787006272715293 2.660206759358226 -0.3460554929241715
H 0.15999042847800296 1.2844580269998966 2.7988030791700194 -0.3535130944197118
O 4.823785294948904 4.03181906240883 5.828363500961271 0.6728417423780646
H 4.752045263540427 4.907374104728884 6.375857027317001 -0.33154428889918064
H 4.282783349010741 3.517917516226882 6.398612264071141 -0.34735989652548493
24

O 4.314780824998988 2.3558287710009043 3.4717861614395544 0.7271454234625023
H 4.145898810991976 3.207248322480336 3.931717739071362 -0.36837186152663415
H 4.836142008319697 1.8223133760718535 4.017324108952474 -0.3595736556608643
O 2.219812827650128 0.643206523420004 1.866377294455988 0.7214987177760752
H 2.9074469087137187 1.3136707961979268 2.104784451111048 -0.37111785969005784
H 2.632199102033046 0.011587190938377578 1.2276599413395501 -0.3605992056022851
O 1.99579507769749 0.9137122518277409 5.423441544693276 0.6920264924815334
H 1.090408785885239 1.0958650339206086 5.68300938104017 -0.35331927366742255
H 1.9128196536271596 1.2679484679770832 4.525308805414109 -0.3557124880924899
O 2.0129423770922936 6.491615426361758 3.9698045298554496 0.7261086129128302
H 2.077962521890957 7.146801045284959 3.235602093322898 -0.3479727339220152
H 2.103473962636019 7.053679385467786 4.816666023795876 -0.35098235271319567
O 4.814107472598501 6.122336170287267 2.455299567338888 0.6827995028181151
H 5.387612200095552 6.11253418171062 3.293672646454561 -0.32911247079984374
H 3.9998358788996575 6.393267709236079 2.8361397888303883 -0.34940813717555974
O 1.0932290702968797 4.019978538197403 1.3820621711169225 0.696189228483926
H 0.7641687723118952 4.433763139776475 2.2041743780244074 -0.3510767050330541
H 1.4133774125132714 3.13356537331929 1.5617438410648867 -0.3444015062000917
O 7.669235937063267 1.8892842247498427 3.3397481828413147 0.7016354478333819
H 7.218272020654328 2.4785039290226725 2.6611172313583538 -0.345751893074399
H 0.16046319496010145 1.301677943851052 2.7966711775553947 -0.35403991841709814
O 4.823767481362286 4.029590323591952 5.826086961612158 0.6690384830569276
H 4.753115281254376 4.919657942145433 6.386676889301339 -0.32820235776241946
H 4.278180047869775 3.516076127452747 6.40244974278798 -0.3467994894878681
24

O 4.314521183183701 2.356158094238303 3.4721917731830163 0.7282680885202919
H 4.146486365748966 3.1999428678636943 3.9327663679055616 -0.368402756790557
H 4.83552134129845 1.8338264487991784 4.006161730333604 -0.36042038873675086
O 2.220294571187434 0.6432518345818635 1.8667710165726503 0.72241384123091
H 2.9012025123082688 1.3085662302341488 2.1049986433196484 -0.37106805864566994
H 2.635148055829677 0.015297794465130821 1.2334766614393908 -0.3607815864094642
O 1.9961775316670356 0.9140021934800714 5.422987950186716 0.6903261110156935
H 1.0951284445391178 1.0951195685639645 5.688330332150269 -0.3542714587478103
H 1.9136129804884363 1.2659269023244584 4.521948049669501 -0.35612825756465893
O 2.012373104728478 6.492489330539748 3.9672118306868738 0.7261472327770975
H 2.0692776516247986 7.142946998115366 3.2449649846755326 -0.34968535685102964
H 2.103900335260017 7.069375436967493 4.833349438472274 -0.34742059080707455
O 4.8146013008146955 6.1204684570909915 2.454893323431703 0.6819255768241019
H 5.385294554974905 6.116225687427698 3.2970778572171544 -0.32857304702501533
H 3.997763589501681 6.392932090889015 2.840196669231431 -0.34892296518534127
O 1.0943863329914416 4.019806588622413 1.3825951443322415 0.6946923390009938
H 0.7636994519665625 4.4307370350259925 2.2124440839172377 -0.34970352897041346
H 1.4126609082695316 3.1398181631845543 1.568031589982837 -0.34430842065266154
O 7.668185186652878 1.8892037829088395 3.3403721209623503 0.7018181272137805
H 7.222596294553422 2.477749077614293 2.662993599249523 -0.34566298605836876
H 0.16157664375457234 1.3181534505085124 2.794124831172512 -0.35439661401365286
O 4.82374535261865 4.027510159107439 5.823882133718163 0.6653077669412475
H 4.754594922859922 4.930394606166367 6.396107608304347 -0.32511846871758654
H 4.27317771660408 3.513401767215594 6.406493130572256 -0.34603459834806105
24

O 4.314172153235542 2.3565723414521758 3.472525151201866 0.7291251339578073
H 4.147238210979154 3.1923437361957894 3.9337058249205046 -0.36846921682651446
H 4.8361006951349665 1.8442467585757543 3.996192449333618 -0.3609886327112499
O 2.220808098004674 0.6432899899784998 1.8671541425391243 0.7233320412517015
H 2.894771725385266 1.3032545259094521 2.105235331699589 -0.3710492890993492
H 2.6378243789887783 0.01937384188229216 1.2396433834726863 -0.36103717778640154
O 1.9965444878471905 0.9143022513956284 5.422497962616306 0.6884768371555212
H 1.0996280561580385 1.0942688046633087 5.694153995416337 -0.35518229165466764
H 1.914863609849534 1.2637980926131485 4.518602255386144 -0.3566162059798531
O 2.011823160950759 6.493431383124439 3.964703801572534 0.7264034054849942
H 2.060506675095831 7.139067978841211 3.254259754243209 -0.3513072491535699
H 2.104129924099051 7.084185595462663 4.848665027382218 -0.3439441671524396
O 4.8151848553946 6.118598086513456 2.4545711360276243 0.681236807052847
H 5.382455534090545 6.119779663543463 3.299116671466657 -0.3283211554334978
H 3.9947117622336425 6.392749016055265 2.844317633979857 -0.34829658625419546
O 1.0955208805840722 4.019666487526898 1.3831557156228724 0.6932349958664525
H 0.7635039516849836 4.427439388032679 2.2201964220849217 -0.3484025611076701
H 1.41204565927172 3.145804729811947 1.5744321921596145 -0.34417541467474144
O 7.66706908543338 1.889210217476002 3.3409715192866307 0.7020432320207493
H 7.227264689741909 2.4764980800737373 2.665805347678962 -0.3457786040049493
H 0.1634961551750743 1.3337021450318158 2.791020725218597 -0.3545688920791299
O 4.823710745229798 4.025583727461665 5.821765646905527 0.6618292271760757
H 4.756489691579473 4.939374054205959 6.40401848613031 -0.3224547083904875
H 4.267901409309255 3.51002270182152 6.410611103230552 -0.3450895276574175
24

O 4.3137162041081885 2.357079991724296 3.4727638247370267 0.7297310888637099
H 4.148113493568038 3.1846204548425527 3.934610459935389 -0.368584164807079
H 4.838201131868071 1.8532718432994937 3.987701468408305 -0.36128331491373245
O 2.221340437309107 0.6433171902856131 1.867528235960103 0.7242237245860685
H 2.8883098970783134 1.2978982564204313 2.1055527814637363 -0.37105705885702345
H 2.640276256359781 0.023717894721177676 1.246070308772564 -0.36135846762465407
O 1.9969017496528279 0.9146110764884333 5.421967529404733 0.6865341694240619
H 1.1038339430414639 1.0933356504216647 5.700484099895832 -0.3560343393534404
H 1.9165534603268384 1.2615477188077264 4.515329909468418 -0.3571357025595222
O 2.011293193235318 6.494437413911803 3.9623188192180305 0.7268537127684316
H 2.0516713459810054 7.135426442342594 3.2631808712763313 -0.3527806996042958
H 2.104133163866656 7.09791734329919 4.862313385736951 -0.34067311611952544
O 4.815846663842125 6.1167294335906215 2.4543386344866094 0.6807507746021833
H 5.379120339266276 6.1231834396693445 3.2997884675333875 -0.32836072090911594
H 3.9908341680782864 6.392661663083193 2.848414624010147 -0.3475451813552034
O 1.0966256382503603 4.019571336934069 1.3837515988448712 0.6918211239500769
H 0.7636241551325809 4.423838883376497 2.227295247541395 -0.34720309732280885
H 1.411602815932964 3.1513511846713573 1.580959109270567 -0.34397668887561517
O 7.665883453764799 1.8893073817053208 3.3415569471595576 0.7023042819535692
H 7.232202366881978 2.474831982692428 2.669499239593666 -0.3460988416085319
H 0.16636159484618399 1.3481816500752875 2.787243525160209 -0.3545475538445675
O 4.8236553494774075 4.023812423560237 5.819752552659177 0.6586487405750634
H 4.758799270625239 4.946438510350045 6.41031195290857 -0.3202330087833707
H 4.262484248188204 3.506074420538972 6.414664298497851 -0.3439956601847427
24

O 4.313139451795642 2.3576843531472242 3.4728888362797 0.7301235746540251
H 4.149067682845176 3.1769585905587645 3.9355657546821265 -0.36875509982551746
H 4.84208925135771 1.8606651356481068 3.9809067631036146 -0.3613354951272829
O 2.221877392500991 0.6433296762158307 1.8678952992098783 0.7250680312238398
H 2.8819825892330897 1.2926709403422456 2.1060143867594343 -0.37108977065098225
H 2.6425610531075288 0.02821864923146066 1.2526560559918096 -0.36173777396343487
O 1.9972544117760176 0.9149273114448657 5.421393271847409 0.6846039928578227
H 1.1076865844367187 1.0923407909290106 5.7073187252620246 -0.3568105689449541
H 1.9186616845677704 1.259164502832503 4.512184654095547 -0.3576813179142332
O 2.010783738637025 6.495499651944939 3.9600912307961336 0.7274458137231694
H 2.042787073912219 7.132298018068899 3.271415130055803 -0.35405564512301957
H 2.1038887218010145 7.110423346429806 4.874066206548691 -0.33771174630870615
O 4.816573011070308 6.114867219247071 2.4542001964273803 0.680476677582277
H 5.375330897795889 6.126425174517997 3.2991204782795718 -0.32868558090994116
H 3.986303234723519 6.3926068754943515 2.852391863354606 -0.3466879607911292
O 1.0976944673976137 4.019532585628015 1.3843891756592956 0.6904815782070624
H 0.7640922415209876 4.419917165331336 2.233626986211195 -0.34616058511431536
H 1.4113983479094836 3.1562974250776406 1.5876243731431376 -0.3436876379522369
O 7.664627309009058 1.8894948494468982 3.3421379247650838 0.7025880576568024
H 7.237320355788326 2.4728511710774868 2.673998960628062 -0.3466134310586866
H 0.17027647167505694 1.3614982575499104 2.7827174905576024 -0.3543273344188146
O 4.823571037386611 4.022194901491242 5.817856275143073 0.655880388440526
H 4.761518892204296 4.95147279350286 6.414917705327576 -0.318534800301599
H 4.257061059092133 3.501693498655475 6.418511965677039 -0.3427933659406853
24

O 4.312433463768561 2.358382271379607 3.4728863789411113 0.7302714949839124
H 4.150053628275779 3.1695555834707996 3.9366667323764437 -0.368985284377668
H 4.847947635584752 1.866280762735537 3.9759344841499042 -0.36110982687892323
O 2.2224039146102146 0.6433238977648531 1.868257752199103 0.7258689704837851
H 2.8759606881602875 1.287752098763039 2.106687068390794 -0.3711698494991198
H 2.644744310324208 0.03275723401395072 1.2592898114036861 -0.3621629169843378
O 1.99760665879105 0.9152496276949671 5.4207726471893185 0.6828056090863239
H 1.1111436677535285 1.0913020446113586 5.714649230444357 -0.35749701096488407
H 1.9211647823614706 1.2566406708220408 4.509213863719597 -0.3582525782319085
O 2.010295418010381 6.496608226705508 3.958051283252919 0.7281031136705078
H 2.03386174389838 7.1299560511946645 3.2786570433581748 -0.3550955535170628
H 2.1033818257909367 7.121591568658887 4.883751880447254 -0.3351370664788361
O 4.817348535772211 6.113016282728997 2.4541586662876953 0.6804130450202908
H 5.371145443037272 6.129494316143527 3.2971677333135725 -0.32927465262574585
H 3.981300998148571 6.3925183401698575 2.856150351159869 -0.3457499281099162
O 1.098722368449457 4.019559276818388 1.3850735717250646 0.6891608957379391
H 0.7649302875103612 4.415668478879724 2.2391015721908025 -0.3452360971248273
H 1.4114900595823736 3.1605066989562096 1.5944364937395112 -0.3432920008388871
O 7.663303369193814 1.8897676124604301 3.342722395037158 0.7028659426518646
H 7.2425159309681835 2.4706751537201583 2.6792047277878437 -0.3472906878799218
H 0.175299465028182 1.3736115692740902 2.7774152126858125 -0.3539094110111629
O 4.823450107067037 4.02072777669466 5.816088543284349 0.6536778961207406
H 4.764640291759048 4.954397476484259 6.4177885625158035 -0.3174578786254322
H 4.251763453248655 3.497013090094349 6.422017174809827 -0.3415462246067119
24

O 4.31159657954895 2.359163579107724 3.472748938619034 0.7302222601658288
H 4.151023190904854 3.162613931822413 3.9380147888313863 -0.3692740570620039
H 4.855851969042778 1.8700786145603152 3.972804138701579 -0.3606507260659211
O 2.2229046128404213 0.6432967574219588 1.8686184209892627 0.7265670803304907
H 2.870413785468262 1.283320596370572 2.107639086114219 -0.3712486317016258
H 2.646898325170304 0.037207993858260374 1.265854034129248 -0.36262533397968766
O 1.9979616068724946 0.9155767534139795 5.420104087903882 0.6812488021265628
H 1.1141823204521624 1.0902339133714256 5.722459304045002 -0.35808514891177634
H 1.924036780344469 1.253972304470832 4.506457467853945 -0.3588385300467103
O 2.009829047615359 6.497752562401751 3.9562246721762717 0.7287325051645301
H 2.024895059327735 7.128655852568713 3.284625291032835 -0.355876035860223
H 2.1026031837633434 7.131338707889285 4.89124611052558 -0.33299678724190573
O 4.818156765727553 6.111181370470696 2.454215084680893 0.6805578977281761
H 5.366638248639086 6.132382063677955 3.294013178786566 -0.33010101879581355
H 3.9760109437103766 6.39232949262958 2.8595920171857925 -0.34476292773003725
O 1.0997056601152557 4.01965774502157 1.385808734195889 0.6879059912408789
H 0.7661504346294579 4.411099622156523 2.2436532615648033 -0.3444895890157993
H 1.4119248942771592 3.16387285663378 1.601398293109455 -0.3427772416412046
O 7.661918287142132 1.8901161249939749 3.343316406763747 0.7031004419278113
H 7.247673737420384 2.4684419178008308 2.68499374424359 -0.34808642562111636
H 0.1814395108929154 1.3845344623987643 2.7713622063359815 -0.3532989238028421
O 4.823285484935764 4.019406190706364 5.814459315219512 0.6520444654145126
H 4.768152510080404 4.955163360366202 6.418896953907317 -0.31699123291708076
H 4.24671560531345 3.492159177501798 6.4250513114055225 -0.340276833705059
24

O 4.310634407591157 2.360011499889994 3.4724756840421915 0.7299850024833014
H 4.151929319073161 3.156332542690532 3.93971335094323 -0.36961352220510835
H 4.865761148089719 1.8721267900935883 3.971426643743866 -0.35997132278956
O 2.223364402347241 0.6432459267158211 1.8689805316312722 0.7271804380518698
H 2.865501732444663 1.2795459171179835 2.1089365606620074 -0.3713516864923564
H 2.649100165596136 0.041442009852881434 1.2722278606475048 -0.36311692541023943
O 1.9983212074460337 0.9159074943961325 5.419387106678495 0.6800265136561403
H 1.1168004349243137 1.0891473043036792 5.730724174592492 -0.35856975073861197
H 1.9272494173745414 1.2511595642373852 4.5039470398305435 -0.35942022545700936
O 2.0093856923916027 6.49892291412688 3.9546319190178383 0.7292213151642823
H 2.015878650098117 7.128616156979563 3.289081472798067 -0.35636901760023765
H 2.1015479934950325 7.139604052765694 4.896463085370123 -0.33131255204744114
O 4.818980532891264 6.109366964042993 2.454368475195288 0.6809050900068774
H 5.361899381042771 6.135081826019102 3.2897677433036936 -0.33113237519171645
H 3.970611750653225 6.391975798594609 2.8626230125133216 -0.34376150636631875
O 1.1006421208202577 4.019831277927445 1.38659751810404 0.686721329560513
H 0.7677546658810973 4.406229473902873 2.247241256365198 -0.3439323939975416
H 1.4127368025798381 3.166325865073668 1.6085049438365555 -0.3421372628667585
O 7.660482542359694 1.890526739038305 3.343923995744351 0.7032413352365856
H 7.252668126486911 2.466305801107696 2.6912225179508993 -0.3489393292634445
H 0.18865513992370367 1.3943284911464568 2.76463652282442 -0.3525058023399039
O 4.8230709059034735 4.018224237742391 5.812976721234617 0.6510663978760594
H 4.772042437470171 4.953747905101953 6.418232606181456 -0.31715752142947196
H 4.242031027892795 3.4872477551155487 6.427497507823616 -0.33905622783992406
24

O 4.309559497143031 2.3609038845303227 3.472072168396672 0.7295587909411454
H 4.152728374586587 3.150896706224291 3.941862413185622 -0.3699917059565927
H 4.877520138994214 1.8725920693095073 3.971614498960391 -0.35907794307450425
O 2.2237692319616515 0.6431701065874786 1.8693476425768483 0.7276999758473728
H 2.861366158390558 1.276579460091089 2.110640269130559 -0.37147683443890667
H 2.6514288058531954 0.04533173798353969 1.278291589449379 -0.36362965699737426
O 1.9986862188916812 0.9162407475016404 5.418622363016029 0.6792142044054548
H 1.1190169270388404 1.0880494639350997 5.739410172084958 -0.3589468366633958
H 1.9307723837687447 1.2482067748687324 4.501705091495815 -0.3599810589283875
O 2.008966650104509 6.500111919720628 3.953287658655117 0.7295662274434693
H 2.0067973322489348 7.12999957410517 3.291849546100715 -0.35658867658164983
H 2.100215067261628 7.146343936610936 4.899347487960071 -0.33015103298068305
O 4.819802349520749 6.107577127324524 2.454615678050017 0.6814394676538764
H 5.3570342639859305 6.137589656854027 3.2845700127735515 -0.33233005219934153
H 3.9652718080049465 6.3913967715215545 2.8651566362470904 -0.3427797829174668
O 1.1015310817520567 4.020079907583767 1.3874417714660867 0.6855956704731454
H 0.769734843475613 4.401088481985914 2.2498500862173745 -0.3435580545981063
H 1.4139451884475158 3.167835674777489 1.6157422737643683 -0.34136814518563674
O 7.659010005370355 1.8909824586066812 3.3445472803639067 0.7033243941510146
H 7.257366182590669 2.4644341200378905 2.6977306417481475 -0.3498688888602849
H 0.19685817156292337 1.4030954642952547 2.7573633891883507 -0.3515456470677081
O 4.82280097575641 4.017175166453407 5.81164702763091 0.650788403239464
H 4.776295213148384 4.950153183662961 6.415801337327523 -0.317957696166684
H 4.237811104503513 3.4823836162844777 6.429252195189982 -0.3379351215382629
24

O 4.3083901176744295 2.361815181160226 3.47154932096149 0.7289413728269409
H 4.153382417176806 3.1464680058592047 3.9445526088984595 -0.37039110100359796
H 4.890877133946997 1.871718663406123 3.9731037414789854 -0.3579809361641908
O 2.224106810473763 0.6430692179839251 1.8697235396026786 0.7281122397760025
H 2.858122539782096 1.2745462555989184 2.1128022906537156 -0.3716178468423279
H 2.653961620454831 0.04875629411379663 1.2839317635671648 -0.36415434971322536
O 1.9990562460833854 0.9165755002091567 5.417811691915376 0.6788866330236443
H 1.1208708293427083 1.086944138997542 5.748474658604716 -0.35921787857370546
H 1.9345735993271285 1.2451224272818542 4.499744806669832 -0.360517921837478
O 2.008573315595095 6.501315827819375 3.9521999927688 0.7296809140641878
H 1.9976315189901093 7.13289678391333 3.29283082196457 -0.3565191338036886
H 2.0986062621787442 7.151528365378966 4.899869573065183 -0.3295061475969221
O 4.820604720648803 6.105815385886138 2.454951264609189 0.6821384324437401
H 5.3521629141574 6.139904645878864 3.2785852816000576 -0.33364641423810004
H 3.9601450698914067 6.390537530151811 2.867115578458128 -0.3418541821332747
O 1.1023734578039703 4.020400372442912 1.3883423957862937 0.6845263599113924
H 0.7720728101606364 4.395718044106361 2.2514898176746962 -0.34336446139796606
H 1.4155542660038816 3.168413490320441 1.623085513019541 -0.3404701847375661
O 7.657517231673684 1.891463912451982 3.3451867364923507 0.7032876195593369
H 7.261631837605273 2.4630021289400976 2.7043461616754585 -0.35079151309169176
H 0.2059212225914318 1.4109664920472218 2.7497056090793124 -0.3504404229359315
O 4.822471197180399 4.016251425019929 5.810474587165828 0.6512514184406821
H 4.780894518712677 4.944405668044483 6.411624977024309 -0.31939482947487885
H 4.234144342442912 3.477659822045083 6.43022591236273 -0.3369576665013412
24

O 4.3071484473026835 2.362718839954019 3.470922112675311 0.7281323688062877
H 4.153861518339561 3.14317254049972 3.947858391781176 -0.3707849235398043
H 4.905510045199884 1.8698007792766849 3.9755819772067906 -0.35670213976551624
O 2.224367362167936 0.6429445828462169 1.87011212569464 0.7284060885045971
H 2.855852176293124 1.273536494538148 2.1154624143545018 -0.3717708479992914
H 2.656770442779043 0.05160709284977967 1.2890465811260676 -0.3646814743884381
O 1.999429842356914 0.9169108230628893 5.416958098062533 0.6790913839219617
H 1.122419275151396 1.0858319694741299 5.757866331198414 -0.35938683756855816
H 1.9386195427306037 1.2419189230634662 4.498069628920298 -0.361026585603217
O 2.0082070028379677 6.5025352346652845 3.951370199703772 0.7295340603382199
H 1.9883605204244217 7.1373170299738895 3.2920122370304226 -0.3561630986606238
H 2.096726083506439 7.155139480946447 4.89802154271169 -0.3293781830304786
O 4.821370332323318 6.104084641256206 2.4553674743730856 0.6829711575834816
H 5.34741956721026 6.142029316707945 3.2720051023900094 -0.3350271570559934
H 3.9553685115987336 6.389349779699341 2.868433327489659 -0.3410207452757602
O 1.103171710425264 4.02078625230651 1.3892993676351122 0.683522042717627
H 0.7747406121516127 4.390169850642887 2.2521960506843337 -0.34335318531827297
H 1.4175533932731461 3.168110364141203 1.630499236499507 -0.3394512253710914
O 7.656022493502964 1.8919505353447832 3.345841477625931 0.7031032644171562
H 7.26533098577381 2.4621864128486832 2.7108930935657054 -0.3516543275420323
H 0.21568769171689234 1.418090175721431 2.7418515276783584 -0.34921678430117464
O 4.822078002685026 4.015444594038516 5.809461714426959 0.6524695935920211
H 4.785822826116408 4.936557802955807 6.4057423430342695 -0.3214456138807238
H 4.231105504654241 3.4731570696139884 6.4303442472706624 -0.3361668305804377
24

O 4.305858548694118 2.363589679210056 3.470208161561383 0.7271396845056961
H 4.1541456650427415 3.1410935275431897 3.9518316096658124 -0.37114522427062135
H 4.921056657301579 1.8671545027416905 3.9787169236726596 -0.35527339336256014
O 2.2245442489078777 0.6427989992856858 1.870517292569075 0.7285542037710369
H 2.8545962123197786 1.2735990366549113 2.118645171479327 -0.37191426504054337
H 2.659917678931636 0.053793123459245126 1.2935509181382026 -0.3652021086137842
O 1.9998046670776481 0.9172458535735089 5.416065707364093 0.6798421694366585
H 1.1237346633719418 1.084711021828663 5.767525971918944 -0.3594605922656099
H 1.9428755532555078 1.2386123978447274 4.496673608084623 -0.36149546246556397
O 2.0078687265536614 6.503775265486242 3.950792857262088 0.7291365697896182
H 1.9789661630741928 7.143186635103042 3.289466471370761 -0.35553013424567737
H 2.094581429586199 7.157168309384648 4.893815522572592 -0.32977273376014804
O 4.822082233946255 6.102387126885616 2.4558543547804828 0.6839037542574917
H 5.342950852420693 6.143969905936971 3.265044461222758 -0.3364179585419902
H 3.9510611739395936 6.387792242722377 2.869054732854303 -0.3403128433509657
O 1.1039297473970648 4.0212282645949236 1.3903117230335529 0.6825887585632997
H 0.7777008702542791 4.384505018052004 2.2520296561366426 -0.34351567293876395
H 1.4199183776667086 3.167013049651963 1.637937640953001 -0.33832662934924984
O 7.654544784711266 1.892421731784118 3.3465093805523023 0.7027646736866822
H 7.268337560952707 2.4621565138467245 2.7172007819792907 -0.35242041339257435
H 0.22598139911270634 1.4246225928615255 2.734003676286362 -0.34790786289491915
O 4.82161876161642 4.014745196467856 5.808608525743094 0.6543850861800871
H 4.791061617478179 4.926691205121229 6.398211312563964 -0.32403178041116043
H 4.228755228078308 3.4689434584088206 6.429548255059314 -0.3355878252864637
24

O 4.304544420147885 2.364405901202744 3.469426437455425 0.7259731786939061
H 4.154225951762833 3.140262836348055 3.956496405763033 -0.37144616124483165
H 4.937144402044025 1.8640923219985905 3.9821821273084512 -0.35372820216889544
O 2.2246344094324257 0.6426366488282175 1.870942742171334 0.7285915477088598
H 2.8543525446342026 1.2747377508460171 2.122357735032619 -0.37208829544726285
H 2.6634524012317886 0.05524594711639039 1.2973810551558782 -0.36570603731347007
O 2.000177687396991 0.9175797782183026 5.415139675634438 0.6811290307693125
H 1.1249010912660289 1.0835774351903436 5.7773875125517975 -0.35944882889557017
H 1.947306178258523 1.23522231412093 4.49554166287208 -0.36191528229364933
O 2.0075589924526627 6.505045164206639 3.950456379327821 0.728531462516812
H 1.9694362542491293 7.150356199265883 3.2853440647197627 -0.35463315394347406
H 2.0921814658857785 7.157615635428447 4.8872831031561965 -0.33069600385222053
O 4.822724134843609 6.100724372665219 2.4564000541045523 0.6849002209029327
H 5.338912447522118 6.145736437788836 3.2579364285050083 -0.3377664176956332
H 3.947322896347685 6.385831165094491 2.8689366494997564 -0.3397592128547373
O 1.1046527751741186 4.021714676362033 1.3913775216633786 0.6816965033412226
H 0.7809071359096617 4.378793644098791 2.251076096024267 -0.3438255447598235
H 1.4226133644828347 3.165238321041615 1.6453457835262355 -0.33709354876353026
O 7.653102810371045 1.8928579932341563 3.347187204410281 0.7022774056338523
H 7.270539484342756 2.463066286129209 2.7231135248431193 -0.3530598151650707
H 0.23661669132589697 1.430718201916131 2.72636727518055 -0.3465535948764453
O 4.821091779413308 4.01414240918847 5.807912740223418 0.6569839380370741
H 4.796591617350462 4.914921515610169 6.389111982128609 -0.3270814557908871
H 4.2271399191229 3.4650744708721035 6.427794572255041 -0.3352817325384849
24

O 4.3032286298008 2.3651503212199034 3.4685964004206187 0.7246536672639237
H 4.15410485840524 3.140660434355728 3.961846111739579 -0.37166448515921446
H 4.95341186444822 1.8609062205677402 3.9856738249415353 -0.3521085013082975
O 2.2246385697210993 0.642462834345675 1.8713917720609505 0.728478756171018
H 2.8550763171640803 1.276911638663999 2.1265896372340825 -0.3722573425954089
H 2.667406792279649 0.05592389616813022 1.300498604570841 -0.36618255810797007
O 2.000545405554707 0.9179117928728562 5.414186062163636 0.682929117668287
H 1.1260104043796917 1.0824261216437152 5.787379391568138 -0.3593648299362038
H 1.9518755126485459 1.2317709771341383 4.494650186952078 -0.36228799803127965
O 2.0072776317731056 6.5063573729833895 3.950343885330401 0.7277758964675873
H 1.9597670057674648 7.158612611226715 3.279858591840919 -0.35349067921941635
H 2.0895376185570367 7.15649295345635 4.878476294456008 -0.3321372590810834
O 4.823280719392469 6.099097193842884 2.456991213032582 0.6859246850368645
H 5.335464984758398 6.147342597162705 3.2509255002902457 -0.339022538063638
H 3.944233463240153 6.383440640026802 2.8680483182719443 -0.33938480650063085
O 1.1053471157132164 4.022231810078319 1.3924937676935616 0.6808879900308977
H 0.7843044342901436 4.373113492731569 2.2494449777562457 -0.34425201085630375
H 1.4255931454264097 3.1629257515762053 1.652661522629019 -0.33582627740160054
O 7.651714001606493 1.8932419578433113 3.347870600077 0.7016483256321859
H 7.271844819475145 2.4650444930511726 2.7285008399946875 -0.353538764362916
H 0.24740794055321008 1.4365224067796833 2.7191398401105324 -0.34520061040637917
O 4.820496263116315 4.013623674257952 5.8073694167828265 0.6602161865108158
H 4.802393311119156 4.901404781610525 6.3785503497741685 -0.3305538578653726
H 4.2262917698007545 3.461593053263346 6.425055398310679 -0.3352421058857602
24

O 4.301931381044442 2.365810954585624 3.467737367323699 0.7232162860211477
H 4.153795639432032 3.142214839498293 3.9678426263296407 -0.37178041533410233
H 4.969524172598723 1.8578568373037248 3.98892160595057 -0.350468531878688
O 2.2245611847534374 0.642283610367818 1.8718670767396068 0.7282032262777374
H 2.856683473003043 1.2800379837321536 2.1313132740111813 -0.37240995465406035
H 2.6717934556584746 0.055814802000222666 1.3028930063055257 -0.3666197855340194
O 2.0009040932809907 0.9182411329387629 5.413211677161696 0.6851997749525398
H 1.1271582341330098 1.081251431328222 5.79742623806952 -0.3592248030713521
H 1.9565475477301997 1.2282829666648842 4.493967901255248 -0.3626209107729901
O 2.0070237044078034 6.507726232673048 3.950434250431323 0.726944028876011
H 1.9499644147169763 7.167698373490567 3.273267470155085 -0.3521325719822733
H 2.086663695207371 7.153824586397799 4.867470057714959 -0.3340678738857765
O 4.823738063686562 6.097505708722973 2.4576135589231507 0.6869424928465058
H 5.332768071099886 6.148805271490102 3.2442579303870263 -0.3401399385746229
H 3.9418520174408878 6.380602792807545 2.866371546248779 -0.33920989231585297
O 1.1060199835804945 4.022764609090005 1.3936563603351664 0.68013703908076
H 0.7878299375309049 4.3675491333123535 2.2472686955196854 -0.34477078210422574
H 1.4288061645107517 3.160230138159978 1.6598174133461077 -0.33452369202916776
O 7.650393704731347 1.893559292543589 3.348553936844277 0.7008826856796029
H 7.27218766467137 2.4681853702774417 2.7332674106124757 -0.35382650667587245
H 0.2581764739459119 1.4421670484750946 2.712504009806404 -0.3438925049849326
O 4.819832297300732 4.013174169389756 5.806970618214736 0.6639292820478115
H 4.808447257599812 4.8863449894668705 6.366663848609464 -0.3342937641424544
H 4.226228531750189 3.458529527179896 6.421318751464662 -0.3354728878417871
24

O 4.300669984852198 2.3663810410869144 3.4668680409775408 0.7217014638642965
H 4.153320894794623 3.144808602865059 3.9744183852952015 -0.371773656944292
H 4.985182873413748 1.8551676013598393 3.991693966837125 -0.3488692384071971
O 2.224410118745568 0.6421053407738034 1.8723705800601043 0.7277655157918281
H 2.8590571838931744 1.283998550721656 2.136485859595823 -0.3725438644340917
H 2.67660404156933 0.054936827253135145 1.3045821815317715 -0.3670043003506883
O 2.001250012884309 0.9185670398345899 5.4122239089907 0.687892093188698
H 1.128440065907712 1.0800478160263833 5.807450569046659 -0.3590463023551339
H 1.9612865161905397 1.2247845031548148 4.493456951703657 -0.3629409718505172
O 2.0067954710673215 6.509166582775865 3.950703101917342 0.726130735626271
H 1.9400443899953352 7.177332552893076 3.265852391597808 -0.3505947172600449
H 2.0835760861546158 7.149650797189657 4.854366076093179 -0.3364543286282248
O 4.824084148349756 6.095949382589094 2.458252662932315 0.6879225922781129
H 5.330972715619542 6.1501437401784145 3.238169605454746 -0.34107961330277514
H 3.9402165639528826 6.377307883669656 2.8639007710806728 -0.33924791780653085
O 1.1066792380496404 4.023297225019473 1.394860091736919 0.6794480023191887
H 0.7914141837806261 4.362190385726721 2.244699819074612 -0.3453544799433562
H 1.4321972097489317 3.1573117494320533 1.6667434402043866 -0.33321836693848284
O 7.649154534140949 1.8937993735970835 3.3492301799808235 0.70002198490607
H 7.271532572763766 2.4725410174270177 2.7373606071411807 -0.35393035560736463
H 0.26875632563775176 1.4477673182607655 2.7066219850576165 -0.3426723562791193
O 4.819100815293773 4.012776153971956 5.8067049678762315 0.6680629239897775
H 4.8147350740640835 4.870005233609077 6.353627907097866 -0.3382351026336481
H 4.226953180850057 3.4559013412777078 6.416588819466076 -0.3359797392227797
24

O 4.299458693592818 2.3668586082906917 3.4660061727691738 0.7201557704268675
H 4.152710547774725 3.1482868776367 3.981480555950868 -0.37163487378702476
H 5.0001305653932135 1.8530231864619022 3.9937995093427205 -0.34736800024223247
O 2.224196111486147 0.6419342430014263 1.8729033181082175 0.7271696655258388
H 2.8620562084771697 1.2886479112884177 2.14205235643816 -0.3726536373641244
H 2.6818093679161126 0.053337282486310915 1.3056112645741687 -0.36732389158206025
O 2.001579616844144 0.9188887576068098 5.411230526444285 0.690856654430702
H 1.1299477141359937 1.078810376016887 5.81737456670367 -0.3588504551413766
H 1.9660573859998398 1.2213029113129203 4.493074432951227 -0.3631925653167478
O 2.006590409775678 6.5106924465578455 3.95112345341901 0.7254444842935359
H 1.9300320641335267 7.187223535756412 3.2579032754420574 -0.348922979242814
H 2.0802941127749883 7.144032693486667 4.839298810482811 -0.33925430046689853
O 4.824309378978918 6.094427087202019 2.4588946996327135 0.6888420646484574
H 5.330213678255235 6.151378639590216 3.2328739358417886 -0.34181372024651024
H 3.9393434273631867 6.373554385987496 2.860643085530595 -0.3395055372216953
O 1.107333115359384 4.0238135957190835 1.3960987280706831 0.6788247096386699
H 0.7949827054801973 4.357130429105822 2.2419072620954914 -0.345965192471243
H 1.4357100666010099 3.1543323396924197 1.6733695354464566 -0.3319530479770548
O 7.648005991606609 1.8939556666071824 3.349890824634884 0.6990472062368576
H 7.269876849868316 2.4781166607576806 2.7407748079092973 -0.35379697818983646
H 0.2789978393603107 1.453420609191475 2.7016324610068496 -0.3415838072422447
O 4.818303547693255 4.012408297548673 5.8065571937875635 0.6723404349297966
H 4.82124078149637 4.852718513168028 6.339662361277749 -0.3421072817108871
H 4.228453349842026 3.453712585311588 6.410886552994196 -0.33675472192803246
24

O 4.298308940807398 2.367245687971639 3.465168474488034 0.7186171183207031
H 4.151999715523646 3.152467772593163 3.988916051521543 -0.3713576808038438
H 5.014149226165027 1.8515726542597404 3.995083392022927 -0.3460109708974175
O 2.2239321673171584 0.6417760527331039 1.8734654260290171 0.7264209450044123
H 2.8655230792990567 1.2938217759000041 2.1479485499019164 -0.3727268815048922
H 2.687360964672442 0.051089601623739225 1.3060495720033967 -0.3675678910134149
O 2.001889741217985 0.9192055322422079 5.410239463913224 0.6940241351467482
H 1.1317661719232601 1.0775353247409623 5.827121854316412 -0.3586572344129183
H 1.9708258331341775 1.2178655786906507 4.492773673518182 -0.363414213090106
O 2.0064052820501863 6.512315642855594 3.951666187564738 0.7249948859333935
H 1.9199602106616742 7.197086359440859 3.2497027774201346 -0.34719499960849765
H 2.076840456268175 7.13705760053648 4.822443360520796 -0.34239360229655436
O 4.82440716584575 6.092937179721387 2.459527270675944 0.6896826610350872
H 5.330600965792719 6.152530625229857 3.2285487158989166 -0.3423229702731754
H 3.9392265762345726 6.369349058464992 2.856618274119699 -0.33998153544370335
O 1.107989955150507 4.02429798151856 1.3973651854669946 0.6782613516887919
H 0.7984580510119648 4.352463529481875 2.239071296396658 -0.34656130396596363
H 1.4392897874453559 3.1514473743407625 1.6796278083735456 -0.3307647041224412
O 7.6469543915487215 1.8940257651296692 3.350525911407428 0.6980211275517074
H 7.26725085737292 2.4848691114703634 2.7435510701890813 -0.35345684694905033
H 0.28876875439603 1.459207398294313 2.697650407729297 -0.3406686634543943
O 4.817442964835597 4.01204501642726 5.806507653548704 0.6767095463043844
H 4.82795271668353 4.834899907643008 6.325038768861696 -0.3458694801409834
H 4.230700541622633 3.4519532455895803 6.40425045695481 -0.3377827930078299
24

O 4.297229576970378 2.367547487703844 3.4643704318154587 0.7171353267944944
H 4.151226421041119 3.157150714172291 3.9965975745704223 -0.3709478546711956
H 5.027058799276739 1.85093215200295 3.9954242810472267 -0.3448438273063663
O 2.2236328557761933 0.6416357627501416 1.8740561897369687 0.725533223689236
H 2.8692925066506882 1.2993456763527502 2.1541044125521664 -0.3727522353659324
H 2.6931937724085953 0.04828888718956478 1.3059862790254886 -0.3677277718202574
O 2.002177758758031 0.919516616090936 5.409258604586311 0.6972908382245477
H 1.1339707863727666 1.0762203745670404 5.836619249008399 -0.3584886563054194
H 1.9755587008311568 1.2144993457375461 4.4925061458507916 -0.36361570229788787
O 2.0062362255528945 6.514044729836852 3.9523002160877865 0.724785439709996
H 1.9098675713971969 7.206653154471548 3.2415161161570962 -0.34541541803400533
H 2.073241507059203 7.12884767235726 4.8040232924371 -0.3457684099564394
O 4.824374516181715 6.0914775953629166 2.4601402134285886 0.6904332589905975
H 5.332211206337837 6.153618834760955 3.2253232485855747 -0.34259777203736064
H 3.93983682784179 6.364706997433685 2.851858844403197 -0.340668177434189
O 1.1086579395920417 4.024735429389602 1.3986517865283792 0.6777507413420514
H 0.8017620986455889 4.348282526468178 2.2363776032513623 -0.3471090597389812
H 1.4428844872429658 3.1488012689042075 1.685454441257232 -0.32968113847656644
O 7.6460029159793255 1.894011213953057 3.3511243100115227 0.6969667593903144
H 7.263715688704521 2.492709130455059 2.7457734304817607 -0.3529109334500864
H 0.2979555710094023 1.4651914865889148 2.6947664136478284 -0.33995810076887123
O 4.816522160837302 4.011655892165157 5.806531928991239 0.6809439040383596
H 4.834866219915576 4.817056275077775 6.310085371424919 -0.34935519786805236
H 4.23364897914471 3.450598155097553 6.396737784156576 -0.33899923664790776
24

O 4.296227384964421 2.3677712721211255 3.463626155397737 0.7157667359101074
H 4.15042940143923 3.1621280793111177 4.004390251188932 -0.3704173534691032
H 5.038713806168169 1.8511888464676902 3.9947301500830075 -0.3439128406103099
O 2.2233135998106404 0.6415174038194632 1.8746741170339425 0.7245329266360794
H 2.873199450983487 1.3050434049906952 2.160447516482609 -0.37272471447442235
H 2.699229322410492 0.04504702905553846 1.3055257297937044 -0.3677948570331532
O 2.0024417061536823 0.919821270631123 5.408295561325559 0.7005459064020201
H 1.136624979071497 1.0748650289888606 5.845798381564899 -0.3583664375087732
H 1.980224247345219 1.2112298039430545 4.492223341440783 -0.36379874180960925
O 2.0060788455006993 6.515883964449252 3.9529923104050972 0.7248804595439311
H 1.8997966020283508 7.2156815378412125 3.2335830835728308 -0.34367537770560863
H 2.0695278005097526 7.119567487247954 4.784321016204963 -0.34926280416418676
O 4.824212521521404 6.090045938623817 2.4607262150187124 0.6910898777699315
H 5.335080711202094 6.1546594142238575 3.223268616341179 -0.34263648146873593
H 3.9411210331482125 6.3596548575826946 2.84641001085641 -0.34155379231525074
O 1.109344808335772 4.025112222781342 1.3999506466882077 0.6772927624255234
H 0.8048190479652466 4.344675744314116 2.2340093534889296 -0.34758009465521433
H 1.4464469269912397 3.146523289701769 1.6907914533118695 -0.32873178962025795
O 7.645151844896478 1.8939170927800573 3.3516741616277126 0.6958727617821887
H 7.259358921134281 2.501507121047838 2.747561491849715 -0.35215096182693817
H 0.30646154778151646 1.4714210504121576 2.6930471012938013 -0.3394573805677563
O 4.815544743359712 4.011205498640955 5.806600716154711 0.6849115466472879
H 4.841986895227181 4.799789956073913 6.295187977487935 -0.3524323645156968
H 4.237234397191936 3.449605743590483 6.388425691195622 -0.34039698537206664
24

O 4.295307028418169 2.367926011848618 3.4629482111959784 0.714574350436672
H 4.149646275229247 3.167194295486839 4.012157628952576 -0.36978906781860066
H 5.0490008668137385 1.8524039521280045 3.9929350531937846 -0.3432591220152008
O 2.2229900161224525 0.6414239628027223 1.8753170753330448 0.72346245778998
H 2.8770855940770677 1.3107439214158023 2.166905938277221 -0.3726478371960712
H 2.7053796757204926 0.04148710817414285 1.30478211708735 -0.3677643023042467
O 2.0026803855312516 0.9201187650523661 5.407357453506868 0.7036914359534103
H 1.139778520259662 1.07347079129938 5.854597147692963 -0.35831094527950413
H 1.9847923197021102 1.2080806589921154 4.4918787014051444 -0.36396489803499776
O 2.0059282674659347 6.517832475567595 3.953706335112683 0.7252759630125225
H 1.889792138536963 7.22395627526833 3.2261166747717547 -0.34203399045852756
H 2.0657345806888263 7.109435574657523 4.763691677224223 -0.3527496165484276
O 4.823926667992356 6.088639563725281 2.4612811548797606 0.6916543031426827
H 5.3392011454909465 6.155664323198728 3.222392441362404 -0.3424471053016036
H 3.94300146958285 6.354224276151251 2.8403295084470535 -0.34262019302138835
O 1.110057577430345 4.025416275652827 1.4012541474354394 0.6768940122104163
H 0.8075587288118649 4.341723663168411 2.232138249071033 -0.3479469200161789
H 1.4499357193548477 3.144724550221587 1.6955880868889373 -0.3279520506189394
O 7.644398942410653 1.893751398044626 3.35216340898687 0.694836087885603
H 7.254288866599286 2.5111014719505467 2.7490605931325627 -0.3512238945609879
H 0.3142115443825714 1.4779302241417869 2.6925364488609023 -0.3392226203807631
O 4.814514693901052 4.010654372866021 5.806680417225571 0.6885699328776067
H 4.849333742068973 4.7837852103451315 6.28077980171474 -0.35507675801923644
H 4.241373041926677 3.448916787647361 6.379412123880783 -0.34194922173419173
24

O 4.294471504290148 2.3680215392434882 3.4623475518911646 0.713605048748327
H 4.148912190852589 3.172152713237018 4.019766416175086 -0.36909116685031096
H 5.057835428093555 1.8546161022770409 3.989995567959458 -0.3429017615941815
O 2.2226773667294406 0.6413574322406149 1.8759824786716075 0.7223733210679597
H 2.8808037813018177 1.3162862927925376 2.1734104087620376 -0.3725264721260535
H 2.71155163874257 0.03773767070306455 1.3038740862164442 -0.3676366887705341
O 2.002893438808931 0.920408377828837 5.406450688459779 0.7066591930988222
H 1.1434662476087964 1.0720412749867398 5.862961013384988 -0.3583406789349125
H 1.9892345052206402 1.2050731510721449 4.491429571472035 -0.3641247192059106
O 2.005779217177445 6.519883478791354 3.9544025649471397 0.7259400670500049
H 1.8798998471503559 7.231291234431304 3.2193014001856217 -0.34055032132561125
H 2.061902083310822 7.09873531044541 4.74257586801947 -0.35610440696459356
O 4.823526916402567 6.087255639056683 2.4618041315631904 0.6921322567360235
H 5.344518417108336 6.156640565703861 3.2226388928231238 -0.34204779963183807
H 3.945375641675109 6.348454823117179 2.833687179882898 -0.3438413324247792
O 1.1108022735855059 4.02563747101584 1.4025554552190749 0.67655831577266
H 0.8099199555610144 4.339495575657978 2.2309152967158945 -0.3481839534927055
H 1.4533162048261778 3.143496044384696 1.6998018329169533 -0.32737234504907575
O 7.643739822455077 1.8935244333282713 3.3525803552320483 0.6938890917691547
H 7.248628751079223 2.521307279674333 2.750432095626593 -0.3501762649418282
H 0.3211492372776637 1.4847402680359612 2.693256890246786 -0.3392441566796335
O 4.81343628183308 4.009960754377667 5.806734216635954 0.6918421683379274
H 4.85694204175892 4.769781892552586 6.267323127473453 -0.35723687206263965
H 4.245960405626447 3.448452810001302 6.3698168554506465 -0.34362052252627284
24

O 4.293722350181761 2.3680680247439225 3.461833410187179 0.7129035881754422
H 4.148258731693929 3.176821526373478 4.0270907819735795 -0.36835739653585964
H 5.065159609548678 1.8578437665775487 3.985888290828186 -0.3428508163241465
O 2.222390071325567 0.6413188888535246 1.8766674665462513 0.7213126982982776
H 2.8842216972286208 1.321523849829796 2.179896193146564 -0.3723594435182367
H 2.7176508099947014 0.033927414984450004 1.302919781806069 -0.3674147319301305
O 2.003081397962139 0.9206893943104274 5.405580762737843 0.7094111360229554
H 1.1477071559446057 1.0705823058222772 5.8708441483072455 -0.3584710492482074
H 1.993524222717522 1.2022255727336226 4.490839133197563 -0.36429416856612595
O 2.0056260811694915 6.522023673299366 3.9550368559586877 0.7267305238893993
H 1.8701650783344672 7.237528746671482 3.2132941854912613 -0.33924004332451196
H 2.058075583721271 7.087825631212468 4.721511900069965 -0.3591693595599056
O 4.823027529841133 6.08589119267195 2.4622971751931377 0.6925353651465607
H 5.3509349817916805 6.1575899379612515 3.2238939569287743 -0.34146380092890727
H 3.9481166198356084 6.34239350373594 2.8265642848799852 -0.3451887889717038
O 1.1115837034538907 4.025767931975845 1.403849015155655 0.6762818651262508
H 0.8118535700044082 4.3380465505740275 2.2304623004804323 -0.34827218699621276
H 1.4565610285817596 3.1429074831278156 1.7033991145058323 -0.3270086710470226
O 7.643168338398225 1.8932481567842936 3.3529141984348794 0.6930162551070631
H 7.242510958224535 2.5319252185897683 2.75184398900228 -0.3489929058665414
H 0.32723708845477006 1.491860596145291 2.6952101814488065 -0.3395238131769325
O 4.812314177260661 4.009084335455929 5.80672430984384 0.6947222625016665
H 4.864863171369225 4.758518221766575 6.2552727256106895 -0.3589255784301302
H 4.2508695379408765 3.44811388725849 6.359782901836159 -0.3453809398430532
24

O 4.293059782217613 2.368075635191314 3.4614132499908457 0.712515932223331
H 4.147713280892185 3.1810373372585103 4.034015170941872 -0.36762446016287886
H 5.070940754121293 1.862087119142422 3.9806079051397787 -0.3431133830317502
O 2.222141369337477 0.641308626900924 1.877369066334746 0.7203256868024899
H 2.887223809646724 1.3263265664175707 2.18630426068433 -0.372147342896441
H 2.7235849539562085 0.030180864185825954 1.3020328824618548 -0.3671025410835391
O 2.0032457159557286 0.9209611002257914 5.404752088487732 0.7119244173006212
H 1.1525037921791907 1.069101982544209 5.878210410625339 -0.35871269455163546
H 1.997636770163278 1.1995529311084747 4.490078093255335 -0.36448177242025137
O 2.00546301837882 6.524232781356317 3.9555600855126767 0.7275927629371142
H 1.8606317864839093 7.242538882113792 3.2082252818307593 -0.33815504805004826
H 2.054304948649692 7.077148838930068 4.70114404009498 -0.3618645832308479
O 4.8224467130574284 6.084543122918725 2.462764676124941 0.6928758286025689
H 5.358315301099424 6.158509324197182 3.225995227963352 -0.3407261875477531
H 3.9510731992016987 6.3360942658059916 2.819052817024986 -0.3466298199213085
O 1.112405263895888 4.025802222615917 1.4051309963374183 0.6760908130362056
H 0.8133251161100311 4.337414817915781 2.2308643330328812 -0.3482012804076309
H 1.4596504928352596 3.143006744149461 1.7063557523208306 -0.3268979267288604
O 7.642676952674834 1.8929355329864161 3.3531555598642586 0.6922649230313249
H 7.236070849062043 2.5427513225538014 2.753461512115743 -0.3477205494470632
H 0.33245634466516016 1.499289751728562 2.698378289239955 -0.340061522040668
O 4.811153691510511 4.007991025859274 5.806614845366412 0.6972462333494938
H 4.873160536907488 4.75065551667702 6.245029844933025 -0.3601801804204745
H 4.25595127589422 3.447778168490163 6.3494758917074785 -0.3472173053420473
24

O 4.292482754823446 2.3680543914820302 3.4610927869365793 0.7124818951966219
H 4.147298902310488 3.1846561921675702 4.04043545262825 -0.3669293732489961
H 5.0751706064795385 1.8673293504699375 3.9741658310003687 -0.34368953767875554
O 2.221943150373858 0.6413263610705423 1.8780845278251952 0.719459474874838
H 2.889711265268728 1.3305812985692584 2.192581525520104 -0.3718964260039055
H 2.729266712703464 0.026615011612905994 1.301319581325065 -0.36670724663036114
O 2.003388782675623 0.9212227702385597 5.403967842742578 0.7141992995781914
H 1.1578419455180202 1.0676107052742045 5.885031481850607 -0.35907444721642057
H 2.001549368147776 1.1970667588328674 4.48912599051384 -0.36469552054011944
O 2.0052841524550984 6.5264841030392144 3.95591888834923 0.7284497126514309
H 1.851341509441183 7.246218720029681 3.2041990120594637 -0.3373658394245077
H 2.0506426073081068 7.067222981947288 4.682210174456781 -0.36409019955967337
O 4.821805961053853 6.083208220507415 2.4632126755078043 0.693195497811818
H 5.3664937800278425 6.159391467545494 3.228744870362277 -0.33987280191270397
H 3.95407223810102 6.329616851596797 2.811253829179263 -0.3481558866507324
O 1.1132687959188112 4.025737494078843 1.4063996445530258 0.6759254909195149
H 0.8143169244858492 4.337619722806304 2.2321637785316493 -0.3479694511618501
H 1.46257285757272 3.14381975728296 1.7086574307146831 -0.32698211818305145
O 7.642257034635041 1.8925999951476489 3.353296889816063 0.691753880072977
H 7.2294419129765455 2.553584372927021 2.755440070761803 -0.3464859609157134
H 0.33680725246226356 1.5070161394126507 2.7027240369269285 -0.34084696246945334
O 4.80996112268815 4.006656642096732 5.80637419487201 0.6994638208977642
H 4.881902640940471 4.746719109667567 6.236908195582431 -0.36104316722546226
H 4.261035744815192 3.44730248449383 6.339082089307031 -0.3491241331813896
24

O 4.291988967690581 2.368014036473657 3.4608759483317924 0.712819599241876
H 4.147034157899896 3.1875550571809477 4.046260409186494 -0.3663046259504631
H 5.077865343169847 1.8735373760093808 3.9665894841902025 -0.34456250154119217
O 2.2218057807081824 0.6413713712340727 1.8788110912828617 0.7187699944846726
H 2.8916022246392616 1.3341924364958782 2.198681284355479 -0.37162315206225705
H 2.734616013985161 0.023336431478841246 1.3008760346236228 -0.36624203667750543
O 2.0035139294355657 0.9214736521810943 5.403229848866588 0.7162688947509366
H 1.163690654079997 1.0661212029051454 5.891293050016646 -0.3595692993293973
H 2.0052410923952353 1.194775080742403 4.487972197271137 -0.3649497608475617
O 2.005083791378983 6.528745750398308 3.956057257620741 0.7292169577296748
H 1.842332520161079 7.248491019373759 3.2012949930532897 -0.33686948710199927
H 2.047140782472256 7.058623733973202 4.665515766809288 -0.36582911574591903
O 4.821129196259413 6.081883210149347 2.4636481360206126 0.6934631328484151
H 5.375283997126249 6.160226035725658 3.2319237795645583 -0.3389497312334073
H 3.9569232116898982 6.323024868067045 2.8032748968858248 -0.3496780255887135
O 1.114174505069892 4.025573565435383 1.407655452258354 0.6758364808506232
H 0.8148291991000177 4.338660661162938 2.2343571942181915 -0.34757765049290923
H 1.465324564684909 3.1453497907235444 1.7102997605339605 -0.3273101296867146
O 7.6418990722157645 1.8922550365731994 3.3533327421152004 0.6914145380095909
H 7.222752259844129 2.564232285029799 2.7579205876530866 -0.34524037640517935
H 0.3403094854741562 1.5150185849452842 2.708191527320951 -0.34185649461460355
O 4.808744608160036 4.005074284368103 5.805979375022336 0.7014215155402626
H 4.891146577734641 4.746979298771386 6.2310673425470595 -0.36156373126015495
H 4.265935432631375 3.446524511353241 6.3288048591264126 -0.3510849949181223
24

O 4.2915748082252065 2.3679639928773275 3.4607648354296567 0.7135228647500871
H 4.146933046875253 3.189632455745323 4.051412589485916 -0.36577669548915526
H 5.079066669790196 1.8806619246456138 3.957922133364004 -0.345698114068695
O 2.2217380019449635 0.6414426258106234 1.8795462416217592 0.7182944489859759
H 2.892831711461745 1.3370820830280818 2.204563443678759 -0.37133256949627547
H 2.7395618493789464 0.02044113830940989 1.300786598905164 -0.3657265353095981
O 2.0036254152762805 0.9217129541263877 5.402538505354192 0.718169932837319
H 1.1700024940297937 1.064648522808524 5.896992504699672 -0.360198888278497
H 2.008692752786162 1.1926825418107814 4.486616419618355 -0.36526213892578663
O 2.004856790205052 6.530983586707027 3.955920427882478 0.7298427628978159
H 1.8336388625887856 7.249303673815751 3.1995685176936597 -0.33667485892063687
H 2.043846811490437 7.051938198933915 4.651871763421942 -0.36708311347886324
O 4.820441855903628 6.080564816538408 2.4640783626426477 0.6937383633949166
H 5.384487056112344 6.161000654572804 3.2353037430359852 -0.33800379704472394
H 3.9594238158186066 6.316384046472199 2.795227140269131 -0.35119980342204293
O 1.115120950362649 4.02531280093414 1.4089011466969847 0.6758222444835558
H 0.8148799325547748 4.340517125814869 2.2373956512014197 -0.3470338699781583
H 1.4679104060625439 3.147577872657664 1.711288391970274 -0.3278713712152721
O 7.641592818190209 1.8919138631032475 3.353259997666628 0.6913117961246029
H 7.216121702448431 2.5745167702063814 2.7610254840527286 -0.3440726008005246
H 0.3430026664540908 1.5232668585382532 2.7147065719825036 -0.34306003906890403
O 4.80751458902176 4.00325594327527 5.805417226638088 0.7031539787273078
H 4.900924183475722 4.7514200555910975 6.227500793695727 -0.3617899850996198
H 4.270451684599351 3.4452685545794592 6.31885787542513 -0.3530720116048527
24

O 4.291235232948513 2.3679134019406605 3.460759695823376 0.7145759648405123
H 4.147005105380432 3.190808257123293 4.055828506016744 -0.365365892753696
H 5.07884370029422 1.8886371441507632 3.9482232056237416 -0.34705992295442667
O 2.2217468934172686 0.6415388915059088 1.880287758455989 0.7180487538693969
H 2.893351058863127 1.339189743528809 2.210194538633203 -0.3710237908900107
H 2.7440433810805294 0.018009549606397137 1.3011228611723435 -0.36518101809838377
O 2.0037283906241385 0.9219398300977255 5.401892764529506 0.7199098858425559
H 1.1767141187031982 1.0632099842407337 5.902139241255294 -0.36093588812651023
H 2.0118868559617824 1.1907906274364644 4.485068726025036 -0.36564747170665635
O 2.004598905881462 6.533164824560909 3.9554596630303887 0.7303389163148166
H 1.8252893296950232 7.24862965794278 3.1990502503300595 -0.3368055645662926
H 2.0407985735974132 7.0477077091357865 4.642019000601417 -0.3678875535069074
O 4.819769858018345 6.079249850973731 2.464510477237708 0.6940204988994774
H 5.393900362303328 6.161702056287534 3.23865954151277 -0.3370828554979355
H 3.9613677627782824 6.30975951231177 2.7872215908278863 -0.352665658133387
O 1.1161051164572184 4.024960258996971 1.410141474739699 0.675889762275697
H 0.8145036865903382 4.343149855834506 2.241188196854652 -0.3463660173248251
H 1.4703435912068392 3.150463131390783 1.7116389629863604 -0.32864345093221137
O 7.641327358697338 1.8915891845989534 3.3530779351844076 0.6914845165474788
H 7.209659959852402 2.5842761977587845 2.764857374734552 -0.34304533823142713
H 0.3449471113525512 1.531722096956097 2.722176888491861 -0.3444266189826539
O 4.806284070376424 4.001232049874865 5.804684482495034 0.7046988508221399
H 4.911230095514822 4.759738666786324 6.226042808105135 -0.36177510350252295
H 4.2743824706777875 3.4433529013630664 6.309457268085541 -0.3550550042042169
24

O 4.290963605298262 2.367871195087807 3.460858893016719 0.7159533521824462
H 4.1472555467533985 3.19102320421194 4.059458617593153 -0.36508697474866103
H 5.077295435467367 1.8973799391230814 3.937568816921838 -0.34860909633739434
O 2.221837896168922 0.6416588113167476 1.881033726233992 0.7180397898627535
H 2.893127053956514 1.3404716388660858 2.2155475949567087 -0.3707019657887596
H 2.74801035844861 0.016107975549592438 1.3019434488725248 -0.3646265271602678
O 2.0038288421649533 0.9221533614737203 5.401290161672946 0.7215628673629186
H 1.1837469948020787 1.061825230364569 5.906754846954876 -0.3618321957523506
H 2.0148075112708 1.1890980413703434 4.483349070888781 -0.3661121895202465
O 2.004307148602522 6.535262431506587 3.9546381491460574 0.7307276973209678
H 1.8173063145865944 7.2464674776695395 3.199745264542566 -0.3372807184526576
H 2.0380201444235673 7.046357412237318 4.636535899254984 -0.36826861494417806
O 4.8191384463337705 6.077935336491765 2.4649510540739983 0.6943836258233973
H 5.403325571231253 6.162317141305432 3.2417791523736867 -0.3362344415575744
H 3.962555179168163 6.303212599656862 2.7793646573249124 -0.3540977126057461
O 1.117122569141838 4.02452339906205 1.4113828091990588 0.6759817809567463
H 0.8137493960229363 4.3465029727610425 2.2456079870851955 -0.345572692991863
H 1.4726457322403406 3.153943309024899 1.7113769702799633 -0.32956885225967913
O 7.641091101638849 1.8912931140242741 3.3527882315259494 0.69194208679829
H 7.20346592416967 2.593366842904759 2.769499095704222 -0.3421961894387978
H 0.34622488200536056 1.540337034239931 2.730492078553363 -0.3459205754728223
O 4.805068414431105 3.9990490882683245 5.803787096248127 0.7060172747994904
H 4.922013669622356 4.7713723470120595 6.22639017989672 -0.36149773259669504
H 4.27753357238276 3.440601013719502 6.300810678956119 -0.3570019954793313
24

O 4.290751460223424 2.3678461865417755 3.4610588254378873 0.7176019722776301
H 4.147685334169898 3.1902387788226094 4.062267537075077 -0.3649429298078595
H 5.074554419536185 1.906788677326303 3.9260528532216554 -0.35029328155485473
O 2.2220148117762153 0.6418009734281807 1.8817825640076398 0.718273028699171
H 2.8921413571793977 1.3409002481665557 2.2206021714362874 -0.37038429139649476
H 2.751423689690461 0.0147880692345501 1.3032936780194058 -0.3640861743818681
O 2.0039335079947715 0.9223525429514805 5.400726885620697 0.7230922261242201
H 1.1910091852763869 1.0605157472397049 5.9108724553450696 -0.3628376520697092
H 2.0174403604117335 1.1876011871493966 4.481486226987564 -0.3666624673284036
O 2.0039801330164018 6.537260678169645 3.9534384845001203 0.7310437341548661
H 1.8097045419126778 7.242842128788933 3.201631655164843 -0.3380880524220842
H 2.0355175646534645 7.048107119208594 4.63572094218632 -0.3682678635293115
O 4.818571083910774 6.076618659401509 2.4654059821827934 0.6948192450997794
H 5.412574519116286 6.162833770098505 3.2444706187434424 -0.335507093262587
H 3.9628039340015024 6.29679790951131 2.7717538364812944 -0.35543579312930085
O 1.1181676075846316 4.024011872290875 1.4126326955756792 0.6761478315479044
H 0.8126776664292743 4.350506614605824 2.250499905402694 -0.3446986937079727
H 1.4748468309565745 3.1579353084917763 1.7105375761073978 -0.33065008996251066
O 7.640871782594725 1.8910370479074214 3.352394958566963 0.6926716000000948
H 7.197626733950691 2.601664474439788 2.7750134183394257 -0.3415486618494803
H 0.34694057800088074 1.5490563605464518 2.739523950553502 -0.347498413528904
O 4.803883944731315 3.996761228884568 5.802736660469221 0.7071125655504296
H 4.933187420208367 4.785616568581257 6.228172356881084 -0.36099149858396073
H 4.279732804220465 3.4368563559970235 6.293103707805382 -0.3588692469387105
24

O 4.290588279068976 2.3678471491888318 3.4613538639343484 0.7194520057256637
H 4.148291227716309 3.188437080302322 4.064234213273914 -0.3649315154197802
H 5.070790247089282 1.916742127254504 3.913787729555153 -0.3520501593557973
O 2.222279799778203 0.6419639386070507 1.8825329981635746 0.7187368712862636
H 2.8903900761312706 1.3404640355878035 2.225344549362693 -0.37008281921568165
H 2.7542558793442637 0.014086451859803064 1.305205318178355 -0.3635853145304172
O 2.0040497621116753 0.922536271312526 5.400197919049624 0.7244757943366542
H 1.198397013784422 1.059304731141515 5.914536135840067 -0.3639312361504349
H 2.019772482727993 1.186294659762123 4.479516450343893 -0.36730214206266476
O 2.003618072163666 6.539156415912619 3.9518645576519615 0.7313062373301329
H 1.8024896925914353 7.237806419229074 3.204658883880249 -0.3392002105461085
H 2.033280397314296 7.052949768589714 4.639564864121307 -0.3678944906734275
O 4.81808841338464 6.075297709541384 2.4658804100421348 0.6953583504196807
H 5.4214739537362995 6.163241391096741 3.2465669575032723 -0.33494328487383307
H 3.961961292337237 6.290560351505405 2.7644735147846338 -0.3566667961556066
O 1.1192334797125063 4.023437260611744 1.4138993318838873 0.6763938940329259
H 0.8113576931592877 4.355080018556525 2.2556892867660876 -0.3437745328426688
H 1.4769850640004536 3.1623363876787485 1.7091650629590622 -0.3318606186178782
O 7.640656499437394 1.8908315599647014 3.351904489773459 0.6936604804955753
H 7.192217242667537 2.609065285053734 2.7814433940606595 -0.3411316139371633
H 0.34722124762955764 1.557817558836855 2.749127704244804 -0.34911154935023636
O 4.8027466820242095 3.994425432344234 5.80154898613625 0.7079676045564396
H 4.944632760822777 4.801687358962166 6.230987274481151 -0.36028093843434583
H 4.280844181774089 3.4319977498452365 6.286486751279378 -0.36060401601726966
24

O 4.290461273764494 2.367882859402163 3.4617362996855063 0.7214294505648979
H 4.149065809217425 3.1856208817021043 4.065352225158081 -0.36504831853604924
H 5.066212941341792 1.9270986391970484 3.900904818047019 -0.3538161333835622
O 2.2226333738910133 0.6421462623283476 1.8832840615266204 0.7193989680278947
H 2.8878833845851606 1.3391673389261582 2.229767926518169 -0.3698010871835292
H 2.756491318459753 0.014024481096371073 1.3076964971158858 -0.3631483436874069
O 2.004185461241068 0.9227033404116792 5.399697226795571 0.7256737774030508
H 1.2057975308700046 1.0582166806060325 5.917799609582605 -0.3650931676877832
H 2.0217923378892793 1.1851717733868483 4.477481800387596 -0.36802889714002307
O 2.0032226740956185 6.540958885794264 3.949941584135529 0.7315391191003169
H 1.7956569815385122 7.231442480831106 3.2087460966741075 -0.3405946237381611
H 2.0312848298901476 7.06065288840682 4.647751466558332 -0.36712767166586346
O 4.817707348232254 6.073971002417932 2.466378763951339 0.6960300772414114
H 5.429869137596716 6.163531519880777 3.2479293898402615 -0.3345767252811429
H 3.959914725340351 6.284532736099445 2.7575915521990484 -0.35778569791561277
O 1.120312619249276 4.022812755875352 1.4151910390740357 0.6767007955182303
H 0.809863930501132 4.36013487725926 2.260991198802006 -0.34283114548259863
H 1.4791062885853568 3.1670259980623148 1.7073120098886658 -0.333148633954399
O 7.640431775803929 1.890686301282822 3.3513253443571216 0.6949035413650679
H 7.187299759213494 2.6154863249063967 2.7888131636128826 -0.3409800955450254
H 0.34721585016251194 1.5665520057356046 2.7591436487370453 -0.35071284640883715
O 4.801670811483979 3.9920957838836135 5.80024225473432 0.708566863236302
H 4.956211978683791 4.818797214011913 6.234441904129505 -0.35939242952080686
H 4.280780229032726 3.425953257490333 6.281063874839752 -0.36215677532638046
24

O 4.2903551513407585 2.3679621240850777 3.4621962840073053 0.7234591721297949
H 4.1499974948201075 3.181813956752035 4.0656303001378395 -0.3652849142898905
H 5.061076727231265 1.9376953385662092 3.8875547703434474 -0.35553072721546974
O 2.22307438918919 0.6423465054926145 1.884035089123662 0.7202199682735009
H 2.8846453022672627 1.3370303376563637 2.233872756269246 -0.3695458171409437
H 2.7581265035202644 0.014608090245801984 1.3107716701324383 -0.3627950888282122
O 2.0043487645518563 0.9228524392595315 5.399217982026106 0.726596740991436
H 1.213091400866853 1.0572769403564584 5.920724684820059 -0.366294629464583
H 2.0234897322092325 1.1842250978704658 4.4754282115537585 -0.36880834570907983
O 2.00279699767653 6.542688137842568 3.947714447752292 0.7317928993991731
H 1.7891895737066594 7.223863766171884 3.2137800339730345 -0.3422419591099085
H 2.029497606674579 7.070781770532362 4.659685843247133 -0.3659594086401817
O 4.817440341382753 6.0726377800217 2.466904857093735 0.6968470418885246
H 5.437625822333969 6.163697979729345 3.2484483624827316 -0.334434402339704
H 3.9566016488407603 6.2787339249796865 2.7511566507882392 -0.3587785655195027
O 1.1213969039215435 4.022152783392876 1.416515775177981 0.6770586423930032
H 0.8082728650130522 4.365578671944872 2.266219204331489 -0.3419064150448565
H 1.4812632000788113 3.171868361575085 1.7050381984250245 -0.3344648676816183
O 7.640183612138682 1.8906099112341752 3.3506680357919136 0.6963790045505314
H 7.18292385615232 2.6208657949042675 2.797128691943315 -0.34110911315253023
H 0.3470948986515127 1.5751859219178082 2.769398740279874 -0.35225956180078977
O 4.8006673290684825 3.9898190505996567 5.798835611486711 0.7088770637892392
H 4.967781020502865 4.836215210570298 6.238182192511607 -0.3583288574616652
H 4.279510689880742 3.4187105831245588 6.276885238748063 -0.3634878600162281
24

O 4.290252033153405 2.368093694245101 3.462721856956258 0.7254608679429908
H 4.15107053879046 3.177061647784445 4.065093067280039 -0.36562617024578814
H 5.055681261571263 1.948348890792065 3.873906184204118 -0.3571343257930215
O 2.22360002023543 0.6425632337754684 1.8847857224768827 0.7211642040407902
H 2.880713717958909 1.3340891450150676 2.237667203730948 -0.3693314074789985
H 2.759170259087599 0.015827651839694604 1.3144215796957002 -0.3625396438350229
O 2.004547920806599 0.922982155995946 5.398752834917497 0.7272415182611851
H 1.2201564442536197 1.0565110785091418 5.923378904978612 -0.3675086938769905
H 2.0248556177122845 1.1834468006351113 4.473403335538443 -0.3696941722219682
O 2.0023451326493604 6.544369141468046 3.9452401972646216 0.7320979072718377
H 1.783057057820025 7.215216556867153 3.2196134377883925 -0.34409222520880445
H 2.0278827319187887 7.0827915631464915 4.674614621972945 -0.3643741995841069
O 4.817294923433428 6.071298051509326 2.4674619850555084 0.6978132680845888
H 5.444631154378959 6.1637369991099975 3.2480431751665773 -0.3345368168684866
H 3.952015819901829 6.273168114885341 2.7451972495223926 -0.3596298899808249
O 1.122477919088488 4.021472577779297 1.4178807448612853 0.677482493373649
H 0.8066601543276751 4.371317737143911 2.271192971613943 -0.34104346666133656
H 1.4835140672020495 3.176716009873203 1.7024091484819528 -0.33578000098734506
O 7.639897755383907 1.890609821748482 3.3499447671126994 0.6980429504167247
H 7.179125868048788 2.625163818543707 2.8063783990809643 -0.34150809485234046
H 0.3470466747255131 1.5836427261742814 2.7797108769968255 -0.3537135531158737
O 4.7997432571268215 3.9876325587248536 5.797348549579896 0.7089839952071482
H 4.979198744883007 4.853296160532807 6.2419055546712245 -0.3572121206647103
H 4.27706597134564 3.4103219871612893 6.2739444963722395 -0.3645624232232676
24

O 4.290131471220497 2.3682861095525327 3.463299027237947 0.7273625234726033
H 4.152265003511859 3.1714316352152547 4.063781977156746 -0.36606080010464626
H 5.050371339080267 1.9588571700788846 3.8601432499437123 -0.3585710414972849
O 2.2242057322051187 0.642794994923448 1.8855358734671777 0.7221995914269703
H 2.8761411158785313 1.330396028209865 2.2411677580032774 -0.3691710600732977
H 2.7596439889420847 0.017657850993969805 1.3186231980861454 -0.3623940586557681
O 2.0047910040146113 0.9230910107036351 5.3982942318378795 0.7274497624292418
H 1.226871797811715 1.055944152883315 5.9258327852360395 -0.36867726706319226
H 2.0258824538135967 1.1828294312961227 4.471454772685161 -0.37061280950816144
O 2.0018720416817883 6.546027426831639 3.9425824191498604 0.7324923784350155
H 1.7772140405622252 7.205680790996149 3.2260642185412003 -0.346071431935694
H 2.0264054974219423 7.096095880090217 4.691716168279159 -0.3623929739753232
O 4.817273496478396 6.069952556571775 2.4680529014061054 0.6989360976198435
H 5.450794672549789 6.163647335977591 3.2466617979244035 -0.3348957633617068
H 3.946209511616154 6.267825355893496 2.739722082358959 -0.36033643304261775
O 1.1235472019684278 4.020787741654267 1.4192921554175804 0.6779876546280097
H 0.8050984222150643 4.377259725878172 2.2757440449233557 -0.3402811929994126
H 1.4859210411107913 3.1814143181110706 1.6994942513645062 -0.33706966105767544
O 7.639560102673602 1.8906920098559215 3.3491690431715027 0.6998530171636719
H 7.175928308727779 2.628363376244561 2.816533482319587 -0.34216588974560536
H 0.3472707141377279 1.5918460453820582 2.789894642822272 -0.35503965076217436
O 4.798901358450769 3.985563368861237 5.795800445030541 0.7088142648252507
H 4.990333441581059 4.869494575917407 6.245365236342804 -0.35599990417137284
H 4.27353463862266 3.40090270617185 6.272181609459207 -0.36535535204670166
24

O 4.289970947391338 2.3685472480505645 3.463912081944383 0.7290973594837988
H 4.1535567003509986 3.165015193265475 4.061756640023321 -0.3665716938286172
H 5.045528963544025 1.9690050662206713 3.8464593508302576 -0.3597936951479581
O 2.224885236485901 0.6430402838008621 1.8862857026546336 0.7232867395796212
H 2.870994702769564 1.3260198872177906 2.24439993450527 -0.36906723378957085
H 2.75958189705912 0.020057606913968632 1.3233396931002508 -0.3623641836730901
O 2.005085614800217 0.9231774573862398 5.397834748912856 0.7272004425032588
H 1.2331225391016483 1.0555999220044174 5.928156421682357 -0.3697891964533844
H 2.026563972092745 1.182366179452489 4.469627973331886 -0.3715651126404478
O 2.0013835120763726 6.547685427532107 3.93980652042425 0.7330188287028039
H 1.7715984518328391 7.195471400687943 3.232913858614646 -0.34810545212490673
H 2.025035019840158 7.110123647525476 4.710176603236413 -0.36006252676162265
O 4.8173734484991675 6.0686026624671925 2.4686797257781845 0.7002475809767823
H 5.456048884298663 6.163430348982924 3.2442802795615475 -0.33552394716611844
H 3.9392910638997227 6.262683123915531 2.734722242611142 -0.3609193768258484
O 1.124596488546637 4.020113776293281 1.420755044828463 0.6785682787530414
H 0.8036553216248017 4.383315878533036 2.279720804058356 -0.33965148165637526
H 1.4885481010844908 3.1858067835702446 1.6963646184184349 -0.3382959025648803
O 7.639157219972924 1.890860707125491 3.348355232289067 0.7018046638612301
H 7.173339123884847 2.6304714762387786 2.827548184054788 -0.3430789115115157
H 0.3479706510740609 1.599723187239334 2.7997680085737504 -0.35623367092918135
O 4.798140394695082 3.983628765511368 5.794210243545688 0.7084261794377484
H 5.001067054056405 4.884365227650755 6.248367978280898 -0.3547839884038394
H 4.269055711665916 3.3906235439208676 6.271490327523573 -0.36584369982093345
24

O 4.28974680210703 2.3688836567471308 3.4645440825444545 0.7306197097164229
H 4.15491713304297 3.1579285952170495 4.059096260813952 -0.36714390335940783
H 5.041558641602499 1.978573597835132 3.8330476055064597 -0.36077157549249506
O 2.2256304585858966 0.6432975148167829 1.887035591107175 0.7243874010519684
H 2.865356733755269 1.3210465735487433 2.2473989588645105 -0.3690180137508262
H 2.7590311034492134 0.022970084833817402 1.3285205180354045 -0.36244853697272084
O 2.005438587011075 0.9232399380451562 5.397367441892251 0.7264710815776838
H 1.2388044711164667 1.0554999999786006 5.930415920149147 -0.3708213446317451
H 2.0268952244603535 1.1820511983665034 4.467964441665495 -0.3725398042690765
O 2.0008861245645044 6.549359787743813 3.9369757639207363 0.7337274054277729
H 1.7661307204001069 7.184836666542119 3.23990870384572 -0.35012841715338106
H 2.0237456262434486 7.124363556515773 4.729251090245333 -0.3574608636719334
O 4.817587568394104 6.067250217635756 2.469343794246229 0.70169336028238
H 5.460349594310208 6.163090052308764 3.240901973137453 -0.33638158880250335
H 3.9314182481031317 6.257708777626084 2.7301744005401067 -0.3613666237220047
O 1.1256179807217317 4.019465545135386 1.4222732129081406 0.679214459551418
H 0.8023920238270958 4.389402909265438 2.282992101356635 -0.33918427341368584
H 1.4914583100585705 3.1897416526360427 1.693090543653597 -0.33941910164667943
O 7.63867706977458 1.8911180349568053 3.347518011909863 0.7038265306715803
H 7.171350783404013 2.631520530828726 2.8393600081597423 -0.34423706950130073
H 0.3493434573491396 1.6072092850308977 2.8091608483743795 -0.3572317383366488
O 4.797455800511878 3.9818376974978675 5.792596250406627 0.7078611633372605
H 5.011295937998035 4.897552028807572 6.250766332951087 -0.35362603314751373
H 4.263806891671076 3.3796986341554884 6.271729166767614 -0.3660222237445486
24

O 4.289435400843165 2.3692998316675693 3.4651774544819354 0.7319035443087265
H 4.156313596743959 3.150313887113458 4.055900638164363 -0.36776632728250513
H 5.038868708729224 1.9873504861196998 3.8200903695606185 -0.36148694560280914
O 2.2264315408764612 0.6435650133926629 1.8877861133989784 0.7254714515674638
H 2.8593244441281116 1.3155787537627797 2.250210245507319 -0.3690226016043756
H 2.7580516109998103 0.026321030305633174 1.3341016796047862 -0.36263895788393197
O 2.0058556942071775 0.9232769288655865 5.396886186189035 0.7252547600360384
H 1.2438287276426516 1.055663060580274 5.932669782661351 -0.3717467588967206
H 2.026872615138876 1.1818798694885337 4.466500179829654 -0.37351607700576883
O 2.000387322857289 6.5510603459852765 3.934149567779693 0.7346314005534673
H 1.7607127926222357 7.17405491105002 3.246760609634586 -0.35207152700806266
H 2.02251682513005 7.138381614371465 4.7482899963283876 -0.3546721713330916
O 4.817904616182936 6.065897341103048 2.470045460104838 0.7032937540019333
H 5.463676184860881 6.162633196727504 3.2365568599749643 -0.3374699448436984
H 3.9227887416953546 6.252862503971722 2.72604462932574 -0.36170030270194653
O 1.1266046152821345 4.0188568318441495 1.423849236317111 0.6799134161832292
H 0.801362145857664 4.395444499002695 2.2854496136186664 -0.33891043799762866
H 1.4947106655307019 3.193081061827152 1.6897388680824226 -0.3403961159779241
O 7.638109832048358 1.891463610170135 3.3466718214438362 0.7059142686342974
H 7.169939117854826 2.6315701441496824 2.851889734676037 -0.3456081936658466
H 0.3515680544252061 1.6142519422576678 2.8179235985900632 -0.3580600401473488
O 4.7968405718786755 3.980192482582097 5.790975798331691 0.7071606520569609
H 5.020930756293531 4.908776161268111 6.252451155224939 -0.35257118908022844
H 4.257990511003458 3.368370197902999 6.272734174184765 -0.3659056563102071
24

O 4.289014888743675 2.3697972820089093 3.4657948059936285 0.7329411977263911
H 4.157709441395824 3.1423390373652804 4.052290757366621 -0.3684308808074582
H 5.037843145274298 1.995144808812917 3.80774555523072 -0.3619349972030034
O 2.227276872486619 0.6438410519675192 1.8885380375078475 0.726520557450185
H 2.8530094376334065 1.3097351789640121 2.2528895559652966 -0.36908411682120357
H 2.7567164283504217 0.030022561350438008 1.3400058647583468 -0.3629227853657284
O 2.0063413881800205 0.9232869930582478 5.396385985028214 0.7235749150688284
H 1.2481259247978416 1.0561040956502679 5.934965481966974 -0.37254201296383027
H 2.026493905469766 1.1818490025120154 4.465264413046099 -0.3744654680012317
O 1.9998953663995418 6.552790180033897 3.931382268339706 0.7357907893446833
H 1.7552294313201364 7.163430577130818 3.2531541582879973 -0.35385614738882953
H 2.021332880646039 7.15182814063442 4.766751312452181 -0.35188239716212477
O 4.818309985205559 6.064546246191174 2.4707838988099042 0.7050322953993478
H 5.4660318265850965 6.162069334225583 3.2313008102959087 -0.3387661547373063
H 3.9136295008324526 6.248100249678639 2.722292189448935 -0.3619310086481692
O 1.127550315399768 4.0182995693118615 1.4254845529404208 0.6807295057230351
H 0.8006111200881237 4.401372384926608 2.287009036086143 -0.3388520436825331
H 1.4983567625646106 3.1957044514091812 1.686370293520512 -0.34126981656203115
O 7.637448693883343 1.891894200740792 3.3458303769954916 0.7080298009648232
H 7.1690620465460055 2.6307091153679028 2.8650413907173555 -0.3471519408687419
H 0.35479367819636193 1.6208146637726313 2.825934940640327 -0.35871976619780044
O 4.796286152744788 3.978690454904362 5.789364908378716 0.7063786005441148
H 5.029895831908336 4.917824988560083 6.25334501327841 -0.35166728203324127
H 4.251820170713389 3.356893654949711 6.274330835267753 -0.36552084377813787
24

O 4.288467288011706 2.370373451577338 3.4663797413156234 0.7337160716883553
H 4.159064241236724 3.134197751595306 4.048409917171405 -0.3691276142169452
H 5.038808071106231 2.0018031795674944 3.7961325350823754 -0.36210146179052727
O 2.228153141441384 0.6441238396379312 1.8892922880777505 0.7275219789062408
H 2.846537223599875 1.3036501229106918 2.25550321815486 -0.36919921921483045
H 2.75511122647244 0.033971954609771135 1.3461430586887844 -0.3632886667766233
O 2.0068985916499167 0.9232688363778371 5.395863223255799 0.7215040694772379
H 1.2516495178001048 1.056833787679388 5.937336517198907 -0.3731952855620889
H 2.025758189868132 1.1819569648524992 4.464278659409104 -0.3753659725827626
O 1.9994192017409158 6.554546805551202 3.928722911339442 0.7371402956357851
H 1.7495511616643837 7.153281303101199 3.2587575704290823 -0.3554209328551349
H 2.0201819006294346 7.16443032248322 4.784192360895379 -0.34917525828272467
O 4.8187864459341405 6.063199049333002 2.4715569011815997 0.7068902775309049
H 5.467443846958472 6.161410902871067 3.225215024422069 -0.34023464912882506
H 3.9041845512940276 6.243376695723339 2.7188732910067075 -0.3620810760944627
O 1.1284502207422777 4.017803461561067 1.4271795801345097 0.681605921213619
H 0.8001757719336204 4.407127230710157 2.287610747411524 -0.33900833864411173
H 1.5024374992912242 3.1975179466119905 1.6830372048374358 -0.3419851853815009
O 7.636690666505504 1.8924034176393838 3.3450061795416306 0.7101431428925207
H 7.168658601088723 2.629056955894924 2.878702693696378 -0.34883793292671783
H 0.35912777792733147 1.62688028069657 2.833109124154663 -0.35921107687346254
O 4.795783146320838 3.9773253509350157 5.787778080181846 0.7055895424991787
H 5.03812817105843 4.924541898106894 6.2533964277640175 -0.35097641366437005
H 4.245510443345598 3.3455258672935684 6.276343095586112 -0.36490221584878
24

O 4.287780494099674 2.3710209495549135 3.4669176406617885 0.7342813435558813
H 4.160334569208911 3.1261093244137106 4.044422452406592 -0.36984227735090247
H 5.041999482426195 2.0072240225951106 3.785321095294852 -0.36204420096196355
O 2.2290454875587824 0.6444115195461501 1.8900498891944928 0.728459491209869
H 2.840045948126617 1.297471878592854 2.258127815892858 -0.3693583667974183
H 2.753333210405347 0.03805320115391599 1.3524120051223674 -0.36372092035667214
O 2.0075285612646763 0.9232213590792921 5.395315851354888 0.7191449852915539
H 1.2543780387423227 1.0578580603641519 5.939800239987989 -0.37369713629140344
H 2.0246658799754433 1.1822037544656192 4.463556127104555 -0.3761974882630946
O 1.998968145897605 6.556323894315256 3.9262149241583923 0.7386133989559689
H 1.743540132941208 7.143921196816768 3.2632399086615305 -0.356723342244728
H 2.0190550451981224 7.1759793696425636 4.8002579039522395 -0.34664769338683743
O 4.819314886932326 6.06185760093617 2.4723607001122727 0.7088497397516951
H 5.467963775727586 6.160673333933022 3.2184054064411556 -0.3418364261903555
H 3.8947032950058533 6.238647839525113 2.7157444421089947 -0.36217852749610335
O 1.1293008892576761 4.01737556542498 1.4289337764854866 0.6825876654135878
H 0.8000839053694285 4.412659501990638 2.287220389305038 -0.33941072944739714
H 1.5069801143280845 3.1984599523891992 1.6797818236087325 -0.3425565610418225
O 7.6358372417383595 1.8929815270355754 3.3442101359919403 0.7122334265708208
H 7.168648426768857 2.6267646226490915 2.8927461541462427 -0.3506345579968885
H 0.3646261961229927 1.6324530983607022 2.839400849613225 -0.35954465211061626
O 4.795322019307032 3.976088641046999 5.786228068832043 0.7048828000575329
H 5.045576290781189 4.9288168832401364 6.252574638838477 -0.3505631032338925
H 4.239266736900344 3.334513272981412 6.278602045816876 -0.3640968676367671
24

O 4.286949828745698 2.3717272268797966 3.4673962473025073 0.7346317943712695
H 4.161475255347962 3.1183127176872376 4.040510433070455 -0.37056847039832175
H 5.047536873230489 2.01136780727638 3.7753251731583783 -0.36175403913179716
O 2.229937830608598 0.6447022472318564 1.890811934961529 0.729321561704767
H 2.8336831198992005 1.2913590804541666 2.2608486066007627 -0.3695558236002858
H 2.7514892115320717 0.0421394761240797 1.358702462728176 -0.3642000476638505
O 2.0082308321687083 0.9231437018887791 5.394743487008281 0.7166050153919734
H 1.256316022602978 1.0591778186218916 5.942356645617626 -0.37403293147389327
H 2.023218658347325 1.182590992052791 4.463101468522962 -0.3769357874525727
O 1.998551463347233 6.558113057704995 3.9238957166113755 0.7401414066738468
H 1.7370574874354723 7.135643102164778 3.26628985522395 -0.3577356923173919
H 2.017945846143533 7.18632061161083 4.814667638850617 -0.34439786622340485
O 4.819874961014931 6.060523356553327 2.4731898656916367 0.7108858448935784
H 5.46766729733768 6.159875134221127 3.211001763134575 -0.3435319906535339
H 3.885430478964678 6.233872958285298 2.71286489426028 -0.36224660929934904
O 1.1301004901919134 4.017019954843656 1.4307457135165855 0.683640877214102
H 0.8003540171937873 4.417930258730813 2.285829061473019 -0.3400364263434057
H 1.5119958016042576 3.198505427873402 1.6766350773178582 -0.34297392590253706
O 7.634894825051976 1.8936153403181357 3.343451402995257 0.7142804734135038
H 7.16893094147496 2.624015764738463 2.90702991030745 -0.3524968416310891
H 0.3712872212191123 1.6375593050979746 2.8448068512924514 -0.35974578332253904
O 4.794893546172595 3.9749704279367952 5.784725776061787 0.7043405468523931
H 5.0521990936554255 4.930579248091689 6.250865919741917 -0.35046777162466336
H 4.233279224131632 3.324084725304937 6.280951261923839 -0.36316751347679976
24

O 4.285978881079847 2.3724747553866488 3.467805946990573 0.734788658202161
H 4.162440965988103 3.1110596973367395 4.036868758859018 -0.3712975870285623
H 5.055408594006497 2.0142608263746964 3.7661034299812766 -0.3612502298939535
O 2.2308132943584376 0.6449942947565567 1.8915795706678622 0.7301019824628565
H 2.8276013664169333 1.2854759583275701 2.263757206223612 -0.36978808300878296
H 2.749693255288733 0.04609624174735248 1.3648979724606336 -0.36470699050314404
O 2.009003251428818 0.9230352959872746 5.394147430393571 0.7139902333623376
H 1.2574935544226151 1.0607889003088997 5.94498822407382 -0.37418870982285257
H 2.021419408768548 1.1831218536467951 4.462910903682278 -0.3775517569167044
O 1.9981777003106915 6.559905975295703 3.9217958929478733 0.7416382853149295
H 1.7299744312729093 7.128695525384767 3.2676412872289142 -0.3584385532869788
H 2.016849649043808 7.19534223557099 4.827202953773794 -0.34250396947003314
O 4.820445601326213 6.059197288063132 2.4740372581459558 0.7129656655298091
H 5.466654031685094 6.159037948715166 3.203156836332364 -0.3452805294386795
H 3.876598286567446 6.229015962196218 2.7101982678697216 -0.3623032552987331
O 1.1308489046619075 4.016737541655637 1.4326130860979585 0.6847723362910132
H 0.8009950812925999 4.422911850949879 2.2834533785895452 -0.34087685795222267
H 1.51747814086152 3.197668130468401 1.6736162683845697 -0.3432533822354611
O 7.633874755411624 1.8942883898674798 3.3427373471700337 0.716255648670632
H 7.169386162405016 2.6210253985696905 2.9214001931535813 -0.35437162712854153
H 0.3790503428221598 1.6422455725277423 2.8493640339741124 -0.35984036298680233
O 4.794489135232285 3.9739600985334884 5.783280151028057 0.7040339196980723
H 5.057965512190357 4.929793459765214 6.248271170104863 -0.3507113890318946
H 4.227717976737644 3.3144453093089323 6.283250676670821 -0.3621834455284614
24

O 4.284879372668357 2.3732419394123507 3.4681398440183733 0.7347740692443596
H 4.163188468184571 3.1046037757692124 4.033696918619118 -0.3720165894460302
H 5.065471710104641 2.015991825887137 3.757566329445548 -0.3605580224119016
O 2.231654747355268 0.6452861492796487 1.8923539612167746 0.7307978239180011
H 2.8219532896944846 1.2799865823648677 2.2669484991653963 -0.37005000440884583
H 2.7480632147184267 0.04978542884890472 1.3708795292931515 -0.36522697315373376
O 2.009842099444095 0.9228960141665659 5.393530622319618 0.7114149285953673
H 1.2579644903645588 1.0626822445390545 5.9476608745272195 -0.37415899962302823
H 2.0192721045841715 1.18380094261852 4.462972693647501 -0.3780210990408631
O 1.9978539359043601 6.561696315215519 3.919938361816677 0.7429946901303939
H 1.7221844506110662 7.123261030951377 3.267098386678329 -0.35882033080733766
H 2.0157632261203626 7.202964065839468 4.837695230304434 -0.3410087233443502
O 4.821005460616035 6.057879816306684 2.4748940033228988 0.7150518853559866
H 5.4650472582701095 6.158186642050016 3.1950453662398455 -0.34703525948164904
H 3.868419629767829 6.224046387702667 2.7077137418728445 -0.36236916458332935
O 1.1315477601910706 4.016526054523699 1.4345326905491163 0.6859857741234532
H 0.802006413673965 4.427588495820262 2.2801353534716235 -0.3419186941328909
H 1.5234026483912928 3.1960003379124413 1.67073358346369 -0.3434126010876496
O 7.632792887026553 1.894981404459449 3.3420735981451792 0.7181304735198739
H 7.169877522324125 2.618035501714953 2.9356955176676904 -0.35621343309310793
H 0.3877999218010836 1.6465760466239276 2.853144421516956 -0.35984757123057576
O 4.794100916462907 3.973046625568434 5.7818982316006835 0.7040320120619727
H 5.062854188696356 4.926456096037728 6.24480437307255 -0.3513146432345171
H 4.222731887529554 3.3057747118634646 6.285377351023075 -0.3612095478696531
24

O 4.2836700915206105 2.3740045455055454 3.4683936129840074 0.7346056303009763
H 4.163679104118044 3.099187425011928 4.031189198499444 -0.3727106044008397
H 5.0774663987906274 2.0167021287778515 3.749588314128457 -0.359701365811554
O 2.2324455245406796 0.6455766477989537 1.8931362691709077 0.7313812589777022
H 2.8168846403494103 1.2750472278956253 2.2705162315772207 -0.3703336895447107
H 2.746716281642871 0.05307094986046119 1.3765303944183833 -0.36572390972632585
O 2.0107422880279677 0.922726129504235 5.392897455693464 0.7089715513129902
H 1.257803491238966 1.064844262169047 5.950325811355383 -0.37392178439823376
H 2.0167816752382417 1.1846340974015837 4.463267908056292 -0.37832918417777783
O 1.997585062780514 6.563481178726443 3.9183375485671466 0.7441029467960036
H 1.7136149652548762 7.119439513451585 3.2645562587661545 -0.35887951884784275
H 2.014684443229088 7.209131742708822 4.846018173550188 -0.3399308499638066
O 4.821533334850353 6.056570791800265 2.4757496328368025 0.7171079901423336
H 5.462991839597933 6.157349126410495 3.186861229376315 -0.3487469796420041
H 3.861083587447542 6.218939861014919 2.705386596282954 -0.3624690513476201
O 1.132200386057701 4.016380181154381 1.436500365017948 0.6872396690688665
H 0.8033776062719357 4.431957003285504 2.2759420294597006 -0.34310766681691696
H 1.5297275161272224 3.1935900293104917 1.6679853942386578 -0.3434648691082889
O 7.631668819694439 1.8956729826058247 3.341464202956449 0.7198859831324558
H 7.170255977138798 2.615308529244908 2.9497517863410354 -0.3579856090978255
H 0.3973733253472078 1.6506281317539275 2.856247601049585 -0.35978803885049704
O 4.793721734059696 3.972218674444411 5.7805851843019065 0.7043652151189097
H 5.066853608070353 4.920594594919268 6.2404919159275165 -0.35226194614360673
H 4.218448558671546 3.2982267157887932 6.287225421844863 -0.3603051769724164
24

O 4.2823751074126815 2.37473749796847 3.468565265047967 0.7342969763114076
H 4.163881321407155 3.095027993565374 4.029523618228454 -0.37336363668377937
H 5.091041768601199 2.0165712719793722 3.742022621331548 -0.35870284579031286
O 2.2331702229629244 0.6458651079617269 1.8939276366053373 0.7318989042024162
H 2.812526951967919 1.270798087546041 2.274547915672131 -0.37063006753524697
H 2.745763673666796 0.05582509185554782 1.3817416476142963 -0.36623882429713595
O 2.0116976164362406 0.92252624227851 5.392253514772711 0.706800229513729
H 1.2571021136744804 1.067257235090385 5.952922475616033 -0.37352746751494026
H 2.013953865022047 1.1856281332150904 4.4637714738631376 -0.3784617173865322
O 1.9973732235437553 6.565261988894359 3.916999088603404 0.7448676500612834
H 1.7042363678278296 7.117240091007183 3.26001326384044 -0.35859910034508935
H 2.0136119989860592 7.213811887051835 4.852080830229841 -0.33929064261356856
O 4.822008516117965 6.055269525196258 2.476592371349038 0.7190955983358447
H 5.460650615534688 6.156555953061248 3.1788130095852005 -0.35037108818275575
H 3.8547535978711718 6.213678004593526 2.7031980251965164 -0.36262144677754926
O 1.132811702192165 4.016291840638304 1.438510909428221 0.6885808873000536
H 0.8050886139993522 4.436026984647073 2.2709647899420777 -0.34447301790771934
H 1.5363953097830794 3.190556136334255 1.6653621092409034 -0.34342819620572207
O 7.630524734550493 1.8963405986670978 3.3409117392494334 0.7215100477435377
H 7.170367094772908 2.613116282963542 2.963409490849023 -0.35965070326401016
H 0.40757240567319647 1.654487575597459 2.858791712984296 -0.35969072760893295
O 4.79334510632644 3.9714645876973327 5.779344283687823 0.7051132335769545
H 5.069962818302425 4.912267636506153 6.235372678971313 -0.353589622295134
H 4.214974211820337 3.291928795748971 6.288706109167338 -0.35952442263674733
24

O 4.281021568486301 2.375416946951387 3.468655044892037 0.7338834905945424
H 4.163773391592471 3.0923012042468283 4.028848716637456 -0.373959260572181
H 5.1057880229434405 2.0158006461749665 3.734716147406976 -0.35760896353206406
O 2.2338154652538336 0.6461514232700449 1.8947291708497835 0.7323124544219994
H 2.8089908217176935 1.267355687310521 2.279119829435822 -0.3709358554506236
H 2.7453055367077814 0.05793445809131555 1.38641723158587 -0.36672232553798334
O 2.0127010586006318 0.9222972099861928 5.391605260683359 0.7049333533173596
H 1.2559643701624341 1.0699002964484523 5.955381459090324 -0.3729422961107517
H 2.0107951507608006 1.1867905181082476 4.464453392352403 -0.37841281837151597
O 1.9972175159410754 6.567044712643159 3.915920159907312 0.745303564220541
H 1.6940666575867085 7.116582597453844 3.253572502023451 -0.3580403580846889
H 2.012545191667849 7.21698784834327 4.855821106660215 -0.3391087229824634
O 4.82241121546243 6.053974827959496 2.4774094802077067 0.7209739179173191
H 5.458199759807273 6.155839732919999 3.1711185934426194 -0.3518690099504057
H 3.849565521399107 6.20824835290929 2.7011350018754503 -0.36283576144403484
O 1.1333880489128318 4.016250553128599 1.4405580066128858 0.6899894765875585
H 0.8071099846861034 4.439820992733734 2.2653186916332673 -0.34594811447489293
H 1.5433355643862472 3.18704214955145 1.662848366492561 -0.343349423017687
O 7.629384102714876 1.8969617381935715 3.3404173819688756 0.7229953013737516
H 7.1700595341951185 2.611726630320285 2.9765212494123108 -0.36116801745500404
H 0.41817563699145477 1.6582437691702856 2.860904861016083 -0.3595935310977967
O 4.79296507067182 3.9707721706366135 5.778176918180676 0.7062941660353519
H 5.0721924606159305 4.901567411225748 6.229499446159304 -0.3552739887345362
H 4.212394860665204 3.286983210042905 6.2897466090070075 -0.3589172776518821
24

O 4.279637433423588 2.3760222013971353 3.4686653753887096 0.7333405329591034
H 4.16334559731771 3.091126513079654 4.029271560082474 -0.3744820305507637
H 5.121270495031064 2.0145975816817243 3.7275222880876404 -0.3564072765962988
O 2.2343706521871307 0.64643613392612 1.8955419378510554 0.7326245589182361
H 2.8063592508945745 1.2648054233528694 2.284291765986208 -0.3712487442683826
H 2.7454256314544954 0.05930630481716475 1.3904792824015129 -0.36716490614705133
O 2.0137450663306367 0.9220400913589727 5.390959710513875 0.7034122419294158
H 1.25450196650056 1.0727500476985938 5.957628256819568 -0.37217043730807176
H 2.0073126266006933 1.188128981194817 4.465280229078375 -0.37817448980138746
O 1.9971140236661595 6.568839351321686 3.9150903528438676 0.7453544366399711
H 1.6831713972208393 7.117308075179407 3.2454325400040114 -0.3571855429829316
H 2.011483807417739 7.2186572481600235 4.85720202334613 -0.339387821498075
O 4.822723098555838 6.052685085373407 2.4781877563286003 0.7227039250913505
H 5.455821710383198 6.155234152581349 3.1639973191931596 -0.3532047015447668
H 3.845626224685064 6.20264416341836 2.6991900629635004 -0.36311899189689356
O 1.1339369757411821 4.016243891180787 1.4426341454314942 0.691416134059571
H 0.8094029663246949 4.443375272805186 2.2591413802993747 -0.34747256504740864
H 1.5504679909204715 3.1832087923093337 1.6604252887390862 -0.34324003704488526
O 7.6282702826492015 1.8975151336889942 3.3399809117331523 0.7243306621264833
H 7.1691947964116896 2.611388247596433 2.9889593909879735 -0.3625060451034082
H 0.4289501214970656 1.6619854992350478 2.8627173875503953 -0.3595222017071832
O 4.792576035973643 3.970128434163682 5.777082525418074 0.7078279353927148
H 5.0735661154660825 4.888623174135421 6.222940186554042 -0.3572052279246005
H 4.210777122126311 3.283467725762669 6.290289331851634 -0.3585194076948146
24

O 4.278249657114502 2.3765371797444885 3.468600891747852 0.7327175369245671
H 4.162601614330479 3.0915563403736073 4.030848574275715 -0.37490727986933037
H 5.137056918687555 2.0131628540615054 3.7203097698179404 -0.35517046145116404
O 2.234828641731276 0.6467204313770125 1.8963669435600161 0.7328340441439711
H 2.8046821812541842 1.263195422084216 2.29010227129989 -0.37155581969037565
H 2.74618610447148 0.059874610964676965 1.393873144468311 -0.36756283659737066
O 2.014821867134545 0.9217561179243944 5.390324104487994 0.70226987459059
H 1.2528296715732097 1.0757813603856274 5.959586845276676 -0.3712323274819036
H 2.0035139221514977 1.1896510936569409 4.466216695801198 -0.37774336646930906
O 1.9970561624374064 6.570658903862456 3.914493030088109 0.7450107421759793
H 1.6716580177720153 7.1191975301406485 3.235868581205319 -0.35605506115640617
H 2.010427982328273 7.218830016428844 4.856208824583558 -0.3401128299258671
O 4.822927918110736 6.051398359493542 2.478914158562254 0.7242530163996261
H 5.453696051175095 6.15477261325631 3.1576601851323214 -0.35434654511509556
H 3.8430126824735718 6.196864119124603 2.697361046640916 -0.3634778607833906
O 1.1344669453309466 4.01625800522497 1.4447305972153155 0.6928939442301798
H 0.8119202458510295 4.446739248039711 2.2525910457343667 -0.3490364806374868
H 1.5577060698107483 3.1792262452954505 1.6580727458096125 -0.3431429969985714
O 7.627205055957489 1.897982177393184 3.3396006486313325 0.7255020320111336
H 7.167659053690033 2.6123120717463473 3.000624094803836 -0.3636438137370096
H 0.4396635433627543 1.6657971533455842 2.8643548520020587 -0.3594896101670879
O 4.792172600800081 3.969519196949823 5.77605842834685 0.7096728789678701
H 5.074122867406703 4.873607171053687 6.2157812937985595 -0.35933467613980163
H 4.210168847413811 3.281436230010577 6.290291378391288 -0.3583421032237828
24

O 4.276882909858893 2.3769512725309676 3.4684684630492066 0.7320298744159666
H 4.161558846416342 3.093570913442249 4.033580617483531 -0.375211639812402
H 5.152737524464281 2.0116824206897395 3.7129672078096476 -0.3539379695665783
O 2.2351862106890716 0.6470061012559375 1.8972051154497085 0.73293830963799
H 2.8039733441450982 1.2625329538997145 2.2965652280846793 -0.3718441612776261
H 2.747623386162663 0.05960468701805596 1.3965682948842877 -0.3679094891502991
O 2.015923739989066 0.9214466564842215 5.389705749057908 0.7015193414578507
H 1.2510610331660994 1.0789681622032783 5.961183064749724 -0.37014888888786057
H 1.9994071413306194 1.191363799738078 4.4672272812613505 -0.37712770477326074
O 1.9970352704378993 6.572518023071299 3.9141069639156827 0.7443170621271564
H 1.65966645349541 7.121994173633941 3.225207963151304 -0.35469124689996867
H 2.009378109697815 7.21752769586044 4.852847779297458 -0.34127268254457377
O 4.8230121614237165 6.050112502282203 2.479576446555631 0.7255954731266485
H 5.4519900031049096 6.154486746357822 3.152299933465906 -0.3552692894336271
H 3.8417713236111597 6.1909119869807485 2.695650820630772 -0.3639165929303245
O 1.1349870435679996 4.016278144377188 1.4468375070848092 0.6944073671852231
H 0.8146071589122281 4.449974554338069 2.2458430761064174 -0.3505990570662805
H 1.5649607108004981 3.175266593509034 1.6557713216944168 -0.343083828943456
O 7.626207279498988 1.898348189914272 3.3392733953949874 0.7265044568821284
H 7.165374112984323 2.61465398624352 3.0114496523013914 -0.3645646351175107
H 0.45009423930103193 1.669755851123746 2.865932670779664 -0.3595135641530868
O 4.791749329431804 3.968928582265217 5.775099610746877 0.711757212092738
H 5.073920357206843 4.856742066723365 6.208131356493515 -0.3615943830271501
H 4.210599444665152 3.2809190132640924 6.289724333996674 -0.3583839633416679
24

O 4.27555866921354 2.377259643981905 3.4682770479661946 0.7312595822641403
H 4.1602476165761795 3.0970794037660068 4.037412979427138 -0.37537874420615025
H 5.167940144851582 2.0103214717135205 3.705405393968586 -0.3527110846932927
O 2.235444245460179 0.6472953940671593 1.8980572743694306 0.7329278299868014
H 2.804209778174764 1.262783895262152 2.303669094197614 -0.37210332160460113
H 2.74974568106932 0.05849584582111189 1.398565945072545 -0.3681865334148833
O 2.0170432479840734 0.9211131851410008 5.389111365731812 0.7011321512770836
H 1.249304653854921 1.0822841734326978 5.962347609828506 -0.3689299250458068
H 1.9950008889651405 1.1932729299780447 4.468277876460859 -0.3763369366431867
O 1.9970413404207688 6.574431570279361 3.913908002493313 0.7433623998051528
H 1.647357562696881 7.125426019823341 3.2138036891516903 -0.35314692421468685
H 2.0083347883620757 7.214783733726161 4.84714649134394 -0.34286470855290907
O 4.822965753673672 6.048825284717348 2.480163858859521 0.7267105521299242
H 5.45084803848125 6.1544046946414195 3.1480804592844804 -0.3559562011570674
H 3.84191736411363 6.1847962637055645 2.6940670801612145 -0.364431992074734
O 1.1355066560191 4.016289192455623 1.4489440791480297 0.6959116656044
H 0.8174034036186177 4.453153375290704 2.239085455563362 -0.352097994307936
H 1.5721436920993541 3.171497025348041 1.6535039266367644 -0.34308073963072006
O 7.625291912472454 1.8986033923593846 3.338994428240076 0.727338154498431
H 7.16230601497979 2.6185011123048993 3.0214078656790493 -0.36525052373071865
H 0.4600382286234938 1.6739297133907831 2.867552898601847 -0.35961758667633514
O 4.791300527087876 3.9683384904373775 5.774198433910275 0.7139543313938719
H 5.0730382890062105 4.838309181512328 6.200125470793632 -0.36386979922420404
H 4.212079777319081 3.281922624938585 6.288573645128997 -0.35863365178256945
24

O 4.274294781153862 2.3774629549504964 3.4680373797520176 0.7304774875017153
H 4.158709355597071 3.101927226073003 4.042240352090419 -0.3753954055442714
H 5.182338941109522 2.009221313940424 3.6975574205362336 -0.35157906314867615
O 2.2356076368713897 0.6475908392933921 1.8989241038912859 0.732798633826246
H 2.8053340304357386 1.2638752932040462 2.311375603386446 -0.37232375437984977
H 2.7525324654585694 0.056581717893147615 1.3998961869433744 -0.3683767735924891
O 2.018173415538094 0.9207572907113649 5.388547021788684 0.7010553670052346
H 1.247661248891632 1.08570354525128 5.963018416610844 -0.36758853697374205
H 1.9903043594538392 1.1953826853934149 4.469337392352288 -0.3753784048972564
O 1.9970636317252628 6.576413486499644 3.9138702398096057 0.7422418402726811
H 1.6349034133276066 7.1292225249823895 3.2020142206182887 -0.35147568656305705
H 2.0072988019373033 7.210644629161447 4.83915556677288 -0.34487305777097765
O 4.822782797294056 6.04753453836023 2.480667800484655 0.727582823592839
H 5.450380976993958 6.154549192245328 3.145125899525531 -0.3563982080785135
H 3.8434339625737297 6.178529840097961 2.6926222951359926 -0.36501490503561185
O 1.1360351663420767 4.016276166954956 1.4510388357462234 0.6974554917054301
H 0.8202451116624317 4.456356072651218 2.2325134738902093 -0.35352104319251876
H 1.5791705067658497 3.168074482230505 1.6512568919717812 -0.3431945984338495
O 7.624469357296561 1.8987434866759165 3.3387576360485536 0.7279934921591864
H 7.158469856275094 2.623863838539232 3.0305080403545257 -0.36568529955942974
H 0.469314773895815 1.6783767108576444 2.8693020525967774 -0.3598134719689148
O 4.790820050977844 3.9677281371898725 5.773344312579746 0.7161162149314269
H 5.071582103493517 4.818656612304218 6.191929742587085 -0.36603341913850174
H 4.214601575705012 3.284429209122314 6.286840984236456 -0.35906972271713267
24

O 4.273105545739148 2.3775665636321412 3.46776152907856 0.7296781993627963
H 4.156994044497024 3.1079084917818385 4.047916066895885 -0.3752530021319658
H 5.195655845565812 2.0084999017905143 3.689376213340943 -0.35055253491205673
O 2.23568489470071 0.64789503078782 1.8998061228918706 0.7325592060195518
H 2.8072588033839763 1.2657007342489817 2.319622941756003 -0.37249373132871266
H 2.755935991830381 0.05392819611212984 1.4006159270780112 -0.3684736803982004
O 2.0193078790355496 0.9203806585154242 5.3880179094247485 0.7012072015508648
H 1.246221101242661 1.0892014661621563 5.963142726087865 -0.3661421200627636
H 1.9853274654472932 1.1976951513594511 4.470379236481787 -0.3742499209996356
O 1.9970912849382016 6.578475746450745 3.9139669835589195 0.7410434914041553
H 1.6224774279786858 7.133129227667783 3.190184898616331 -0.3497359454079585
H 2.0062711291015747 7.205172130420012 4.828951717795196 -0.3472555497051809
O 4.822462197322161 6.0462382833219275 2.48108238271045 0.7282041119214528
H 5.450656992715276 6.154935845957294 3.1435119188280085 -0.3565887198113027
H 3.8462712201414715 6.172129663217327 2.6913338348838103 -0.36565687941818426
O 1.1365815911881785 4.0162247183524205 1.453110030395464 0.6990103540032595
H 0.8230676650263735 4.459667537455305 2.226322770410198 -0.35483113408263833
H 1.5859629574135687 3.1651410901162347 1.6490206867471844 -0.34343479873672644
O 7.623745215974333 1.8987697547174633 3.3385557938320733 0.7284562463687501
H 7.15393010952919 2.630674727417107 3.0387936371672017 -0.3658614779510442
H 0.47776984886089824 1.6831442684278566 2.871250163335674 -0.3600981938161838
O 4.79030113540224 3.9670736083606792 5.772523325662769 0.7180859291398394
H 5.069687166969618 4.798208045123699 6.183746296006391 -0.3679628281944095
H 4.21813620340243 3.288395046716949 6.284544616985371 -0.3596542228136266
24

O 4.272001956777632 2.377579465457388 3.467462309463138 0.7288866266097878
H 4.1551572167195685 3.1147816974694154 4.054264045404424 -0.3749462198931056
H 5.207659598748133 2.008252852532194 3.680832122774296 -0.34967136911720165
O 2.235687533452147 0.6482104253861423 1.9007036717757626 0.7322109567607631
H 2.809873442687358 1.2681277755666787 2.3283296875522566 -0.3725941094622707
H 2.759884573444488 0.05062924911187158 1.4008050844780258 -0.3684717537633062
O 2.0204409943215325 0.9199850617137346 5.3875281627633465 0.7015784390211572
H 1.245062085268812 1.0927546978573137 5.962678685792805 -0.3646524585295772
H 1.980080989973201 1.200209877424266 4.47138256147773 -0.3729901588451452
O 1.9971137794099387 6.580627552614689 3.9141711859845967 0.739863927350368
H 1.6102470748461193 7.136916672183762 3.1786355048618233 -0.34800073681862276
H 2.0052529560677512 7.198446924048335 4.816643265284379 -0.349955065446532
O 4.822008221692232 6.044934831651565 2.481404749637934 0.7285724022790041
H 5.451695736909659 6.155571834519168 3.1432603476590795 -0.3565260127973712
H 3.8503451363909895 6.165616388444297 2.690224179034378 -0.36634790963757957
O 1.137154242249154 4.016121650312314 1.4551461355914128 0.7005679746912539
H 0.8258070935595188 4.4631726074072 2.220700974429338 -0.35600814741699405
H 1.5924513465792947 3.162820505098882 1.6467904148768429 -0.34381388135873636
O 7.62312049080127 1.8986886617389533 3.3383809303724 0.7287147186447884
H 7.148796174552551 2.6387945798425845 3.0463361847401016 -0.36577770980054913
H 0.48527744891880364 1.6882694824406324 2.8734510629882104 -0.3604637224438434
O 4.789736260501983 3.966347538377725 5.771717822386928 0.7197958234731712
H 5.067522428189072 4.777469361407983 6.175817873061584 -0.3696351211092461
H 4.222633289741934 3.293749271944372 6.281721169121943 -0.36033649239013843
24

O 4.270992025020292 2.377513265432335 3.4671527363129306 0.7281326631984322
H 4.153257231998921 3.1222843516881875 4.0610900759757715 -0.3744854593972996
H 5.218163272644063 2.0085551852579626 3.6719102467903455 -0.34896642161940616
O 2.2356293595186676 0.6485392347256839 1.9016169535380654 0.7317594993226761
H 2.8130505475009784 1.271005567763065 2.337399192346408 -0.3726131189437577
H 2.7642872763251805 0.04680110346421731 1.400561500069464 -0.36835909699067293
O 2.021567926996045 0.9195724244258217 5.387080738677411 0.7020455851928953
H 1.2442482628644624 1.096341997839235 5.961596558391145 -0.363128673618066
H 1.9745768548830864 1.202923479758638 4.47233316142227 -0.3716018984622166
O 1.9971212790891026 6.582874715882791 3.9144555473939513 0.7388173292435765
H 1.5983684055369465 7.140385491614588 3.1676520577755114 -0.3463468710607288
H 2.004245670437401 7.190572501173391 4.802376491697112 -0.352911558068412
O 4.821430421409282 6.043622856401922 2.4816351472456692 0.7286913308368741
H 5.453466411479047 6.156455207036864 3.1443379073888975 -0.35621691727230775
H 3.855536822496047 6.159013979759323 2.6893211781599726 -0.3670727876831288
O 1.1377603897848634 4.015955412495326 1.4571363945090308 0.7021165945462753
H 0.8284077371599871 4.466950906625833 2.215818680902306 -0.35703002770055003
H 1.5985762003080062 3.1612152760184062 1.6445660269777587 -0.3443429234346601
O 7.622592108719533 1.8985110566644001 3.3382247753411645 0.7287677097130276
H 7.143214267350368 2.6480243477259093 3.053227364421936 -0.3654363983319602
H 0.4917394809177664 1.693779846758279 2.8759432359548565 -0.3609067887099726
O 4.789117242452963 3.9655194554913082 5.77090630952724 0.7211154907745541
H 5.06529094655029 4.75702524897114 6.168427291075218 -0.37095185000221675
H 4.228018291679309 3.3003909910034785 6.278427962424993 -0.36107541153300904
24

O 4.270081165338297 2.3773811671817304 3.4668455025832317 0.7274441774399376
H 4.15135276084514 3.130146898928553 4.06819275141426 -0.3738933415031922
H 5.2270204119537125 2.009463523933344 3.6626079038193957 -0.3484557408715232
O 2.23552572476577 0.6488833013559886 1.9025460388530444 0.7312151454206908
H 2.8166529524237736 1.2741729487574953 2.3467245981196476 -0.3725460993875941
H 2.769038978544007 0.04257604003531287 1.3999955881463566 -0.36812260754316584
O 2.02268469439327 0.9191448372027045 5.386677343353155 0.7025337952104713
H 1.2438288561995416 1.099944512062451 5.959879494149795 -0.3615893207433486
H 1.9688283494805243 1.205829361846219 4.47322415562801 -0.37012951499125846
O 1.9971047438490743 6.585219361929819 3.914792103571415 0.7379816255648983
H 1.5869843247613742 7.143365747955002 3.1574859355501346 -0.34483666218856346
H 2.0032508521175596 7.1816798027056 4.786342816452358 -0.35604480135052274
O 4.82074361959875 6.042301422940944 2.481776723929064 0.7285660190397996
H 5.455890048727785 6.157574867794258 3.146659175679295 -0.35567365829746866
H 3.861692306980733 6.152349225839145 2.6886583157744477 -0.3678110265940552
O 1.138405957671101 4.015716555162437 1.4590713598752454 0.703644884825745
H 0.830823761518126 4.471071549257578 2.211820914106845 -0.3578758010994946
H 1.6042895878082177 3.160405063662312 1.6423522945741011 -0.3450323076120463
O 7.622153610008254 1.8982511124980268 3.338079254525266 0.7286207871803629
H 7.1373564466987975 2.658121362734306 3.059570460649753 -0.36484347120596494
H 0.4970858194926225 1.6996938377878668 2.8787505403122684 -0.36142554619127254
O 4.788435686901102 3.964557035769965 5.77006366162272 0.7219996484079367
H 5.0632259214294475 4.737522818595131 6.161891022975793 -0.3718883449304643
H 4.234189569446295 3.3081861258808125 6.274746227809781 -0.3618378385799529
24

O 4.269272513937343 2.377197051528196 3.4665524632070004 0.7268575420746441
H 4.149500493954801 3.1381056952870474 4.075373795759639 -0.3732019224197921
H 5.23412272941615 2.011017696364798 3.652932396496263 -0.34815708357864394
O 2.2353927378424108 0.649243995981618 1.9034908677674154 0.7306008528375307
H 2.8205405984432974 1.2774663998657623 2.3561940881398686 -0.3723911473391357
H 2.7740255743591047 0.038096111320202894 1.399224995739677 -0.36776089371208676
O 2.0237881865592904 0.9187046032048417 5.386318413410476 0.7029051027943367
H 1.2438375916340916 1.1035460915324715 5.957524032904128 -0.36006634503058244
H 1.9628506026185006 1.2089177134774998 4.474056386831931 -0.3685367454808821
O 1.9970560442729015 6.58765954669688 3.915151709915314 0.7373842343086168
H 1.5762227543438896 7.145716594689411 3.1483527903836905 -0.34351380008891474
H 2.00227029760481 7.171932652503313 4.768787518767226 -0.35924953861441344
O 4.819967486947054 6.040969982133106 2.4818350893430376 0.7282056861476105
H 5.458845668071863 6.158911253575897 3.1500933846018135 -0.3549128471778684
H 3.8686229707381057 6.145651178764894 2.68827497114589 -0.3685416594397435
O 1.139095255686039 4.015398140319328 1.460943391832468 0.7051458335638054
H 0.8330223437411233 4.475587864539954 2.2088194738425013 -0.35853692130896864
H 1.6095561338068318 3.1604455080032094 1.6401586146957312 -0.3458841142036736
O 7.62179592257153 1.8979251669180046 3.337936937841116 0.7282801648165429
H 7.131408758282065 2.6688170662571076 3.065472372413568 -0.3640150978988739
H 0.5012738113799632 1.706021633677098 2.8818831205890922 -0.3620071355175156
O 4.787683690852599 3.9634280000422515 5.769161661189443 0.7223805948407451
H 5.061582440125143 4.719644589353059 6.156547378368302 -0.372386639433557
H 4.241015482480859 3.3169643242858426 6.270784321560942 -0.3625981201391639
24

O 4.2685672230448555 2.376974801332153 3.466284309918765 0.7264127623321741
H 4.147753608955063 3.1459118280151213 4.082445174829373 -0.3724445607117004
H 5.2393970156727585 2.0132425391483624 3.6428991132574113 -0.34808966191239454
O 2.2352465550971856 0.64962220095902 1.9044512838706036 0.7299434520723755
H 2.824576387262018 1.2807268128644458 2.3656955975621194 -0.3721469508171117
H 2.77912939842156 0.033506643589425004 1.398369169783979 -0.3672801960511073
O 2.024876179540223 0.9182541341863656 5.386003083965372 0.7031285633194271
H 1.2442923854336239 1.1071335621260123 5.954540253419724 -0.35859315838271055
H 1.9566604229413669 1.2121751571395274 4.4748380233164955 -0.3668822464265562
O 1.9969679613796845 6.590188857196031 3.915503084730514 0.7370228122002127
H 1.56619660582635 7.14732359181069 3.1404347568080597 -0.342420071232705
H 2.0013059674719926 7.161538168267178 4.750022962801047 -0.3624036551090928
O 4.819125930588166 6.039628324909433 2.481817681729536 0.7276233484494634
H 5.462179478990705 6.160437616531881 3.1544741682984463 -0.3539563784829465
H 3.8761059216723805 6.138950603166994 2.6882168071947588 -0.3692428551707826
O 1.139830755004173 4.014996101479992 1.4627470957009736 0.7066097491714851
H 0.8349864592567179 4.480532388417443 2.2068862674985965 -0.35901474387549925
H 1.6143537912036823 3.1613675751793155 1.637998751185234 -0.34688757070355525
O 7.621508017706363 1.8975507620948462 3.3377913428230523 0.7277584567535813
H 7.125561623142657 2.6798314236712817 3.0710378835315715 -0.3629790787156809
H 0.5042874772953282 1.7127659362519434 2.885338351401425 -0.3626322959187447
O 4.786855143678797 3.962103575187015 5.768170384941779 0.7223114381470728
H 5.060619757485499 4.704056553591331 6.152731717713105 -0.3725071499107484
H 4.248331986259818 3.32651656555034 6.266680746391754 -0.36333000902444956
24

O 4.267964690372919 2.376727770049512 3.4660503091200074 0.726155196275861
H 4.146160461129224 3.1533383930491787 4.089234968667297 -0.3716653822340422
H 5.24280213496986 2.0161494902161556 3.6325300660876634 -0.3482655940473188
O 2.2351028461719493 0.6500183742945538 1.9054270911441393 0.7292697527087122
H 2.828630284103038 1.283804283578891 2.3751203657322235 -0.371814898876379
H 2.784234133271751 0.028950378417591186 1.3975445802605697 -0.3666901490501201
O 2.0259473227541123 0.9177958410025963 5.3857291982911475 0.7031467723748457
H 1.245195183949701 1.1106969587176292 5.9509517733973745 -0.3571946413165241
H 1.9502767203367097 1.2155849979671665 4.475584190539027 -0.3651901037956562
O 1.9968342146626334 6.592796002294463 3.915811984860415 0.7368859760780082
H 1.5570035053255202 7.1480966058826265 3.133881753867753 -0.3415945533283469
H 2.000359936978435 7.150756387024588 4.73044074303794 -0.36539303087101516
O 4.818246154591104 6.038276531461874 2.481733070523792 0.7268356125826898
H 5.465715931602996 6.162121747518283 3.159611035310905 -0.35283320599173473
H 3.88388778770556 6.132279071577243 2.6885354806787607 -0.3698908805577227
O 1.1406129448748397 4.014509496745524 1.4644795981740437 0.7080209712914363
H 0.8367166252022814 4.485913118394507 2.2060491393834836 -0.35931057719378745
H 1.6186744309738061 3.1631772330402534 1.635890589981813 -0.3480256890240241
O 7.621277560928333 1.8971456869758905 3.3376371881518234 0.727081059680631
H 7.120000379314505 2.690887258741026 3.076364790057379 -0.36177330802942365
H 0.5061367252720469 1.7199227585712846 2.8891017185685066 -0.3632834675795107
O 4.785947451361106 3.960562783885201 5.767060012173224 0.7218424078717078
H 5.060576959221958 4.691342960281553 6.15074360422951 -0.37228804891070655
H 4.255939312532697 3.336591769450089 6.262608266675433 -0.3640242180576223
24

O 4.267462682457583 2.3764685488420776 3.4658582475712296 0.7261247736425023
H 4.144764172534847 3.1601846941194642 4.095589578044669 -0.37091636845148734
H 5.244328063247381 2.01973754991377 3.621852475686009 -0.34868149955422434
O 2.23497630256426 0.6504325948669044 1.9064180825808577 0.7286067452945837
H 2.8325828087550993 1.286562150594744 2.3843661377654684 -0.37140492833449923
H 2.7892285976016655 0.024562939484805014 1.3968610756984514 -0.36599941777092715
O 2.0270011222457422 0.9173320813046963 5.385493370608889 0.7029105249291916
H 1.2465320914595543 1.1142297079981156 5.946795470434026 -0.3558848975648212
H 1.94372064985816 1.219127475338004 4.476316167309685 -0.36347870737522936
O 1.99664944215949 6.5954644656475585 3.916040334074561 0.7369388770277367
H 1.5487261602786155 7.147966682577553 3.1288140054777633 -0.34105771629400305
H 1.999434290480071 7.1399076279666955 4.710523083422482 -0.36811914457054007
O 4.817357563918583 6.0369149308151275 2.4815903250056364 0.7258628016263791
H 5.469268428024598 6.163927756959306 3.1653003440998524 -0.3515790470989284
H 3.8916913250183804 6.1256678430333205 2.6892877914225233 -0.37046067238959157
O 1.1414402788136673 4.01394063690292 1.4661406307450162 0.7093632507350156
H 0.8382313357966986 4.491711541622821 2.2062907781735306 -0.3594242320190587
H 1.6225242911399615 3.1658553796767603 1.6338558807855652 -0.3492820415136584
O 7.621091425383419 1.8967272199242464 3.3374705441934758 0.7262821168221858
H 7.114897943796728 2.701721469024694 3.0815407563794612 -0.3604396940357951
H 0.5068566053962088 1.7274821631607122 2.8931475917266147 -0.3639474058764792
O 4.7849628719407225 3.95879574773999 5.7658026102653315 0.7210377131012864
H 5.061650785360941 4.681951949390081 6.150818039728199 -0.3717640851301176
H 4.263602986286549 3.3468987261488725 6.258774358767251 -0.36468694519952893
24

O 4.267057389346399 2.3762088528657173 3.465714432257955 0.7263417554164706
H 4.143602442308792 3.1662740641872786 4.101374858564758 -0.3702364296045204
H 5.2439950715474595 2.023994067000455 3.61089782307456 -0.3493253159400366
O 2.2348803284604877 0.6508646156754948 1.9074240514827974 0.7279831291495684
H 2.836327211178924 1.2888795279438088 2.393339388235319 -0.37093119693630283
H 2.7940096546922475 0.020469416065717942 1.39641918709001 -0.3652221123212417
O 2.0280379139314793 0.9168651042670458 5.3852910795156825 0.7024107407135265
H 1.2482737534439523 1.117728766994635 5.942120977463896 -0.35468046408197107
H 1.9370156700816747 1.2227801576519737 4.477060263351169 -0.3617762575283139
O 1.9964092024177018 6.598172186519575 3.9161455145967636 0.737113338110654
H 1.5414324594602886 7.146885129839454 3.125323740552264 -0.340813224174112
H 1.998531031925224 7.129381961038864 4.6908524352545795 -0.3704886370349977
O 4.816490624912656 6.035544070261061 2.481398488624498 0.7247291324132983
H 5.472648846203789 6.165817755509793 3.1713349747339046 -0.3502337917646956
H 3.8992238475195338 6.119146684499896 2.6905344260186297 -0.37092884802693016
O 1.142309212066567 4.013295074529305 1.4677324138893488 0.710624248099001
H 0.8395661155567614 4.497882736002972 2.2075508658319944 -0.35936243935867485
H 1.6259242881075886 3.1693580304771327 1.631919945281638 -0.35063709070269555
O 7.620936039418689 1.8963116133122846 3.337288884659728 0.7253951744876423
H 7.110409973983292 2.7120925156467472 3.0866418245143836 -0.359022497338251
H 0.5065065971827876 1.7354289558492861 2.897439909755782 -0.36460835929503865
O 4.783910079160789 3.9568075231906645 5.764374557043546 0.7199576210326639
H 5.06396745546264 4.676129947543922 6.153088812368084 -0.37096518388955535
H 4.271057394539524 3.357111115621457 6.255419415480961 -0.3653232914254756
24

O 4.266743425249983 2.3759594420596377 3.465623694106382 0.7268231985828844
H 4.142707385644991 3.1714564835446715 4.106477039848552 -0.36965913140912876
H 5.241853990398775 2.028895093951434 3.599700956211678 -0.3501846435557263
O 2.234826876339067 0.6513140203092453 1.9084448723462017 0.7274270003327326
H 2.8397696629220146 1.2906516524016625 2.4019560004363334 -0.37040516483788744
H 2.798484607506523 0.016781557366232647 1.3963079750915153 -0.3643846442510945
O 2.029058821573022 0.9163969958376317 5.385116793926375 0.7016811205439912
H 1.2503759836586195 1.1211947023547004 5.936989996209695 -0.3536038329106258
H 1.9301875583757329 1.2265184410748 4.477846393808155 -0.3601204011550201
O 1.996109999267864 6.600891884837525 3.9160807019041934 0.7373693766538783
H 1.5351752724545678 7.144821568018761 3.1234763155491856 -0.34085918175796737
H 1.997651874149347 7.119634442495757 4.67210509321882 -0.37246118277484674
O 4.815675487385872 6.034164695166426 2.48116614171739 0.7234623397314031
H 5.475676692806215 6.167753588815996 3.1775136160972464 -0.3488383587125722
H 3.906189802830902 6.112742473451823 2.692337681714866 -0.3712764904996019
O 1.143214328324745 4.012581445145658 1.4692593583734872 0.7118208852609831
H 0.840771333074845 4.504357481340507 2.209731145551431 -0.359143217619303
H 1.628910149785119 3.173616827349672 1.6301113691348856 -0.3520880613546624
O 7.620797652543749 1.895913696712689 3.337091088665312 0.7244501317978893
H 7.106671340858066 2.7217860469732975 3.0917317404225697 -0.35757134215084974
H 0.5051698565554141 1.7437433756241554 2.9019328384490675 -0.36524239225812916
O 4.782805095938093 3.9546204495577877 5.7627588245786825 0.7186520765435451
H 5.0675592712255355 4.673873371673779 6.157558715275227 -0.3699262164769427
H 4.278014509213635 3.3668787078029103 6.252810276398659 -0.3659218677229755
24

O 4.266513760794729 2.3757301910470945 3.465589496252397 0.7275745621016172
H 4.1421057234291005 3.175607411173384 4.110801881484688 -0.36921042491169676
H 5.237987190553881 2.0344055008008666 3.5882992779639094 -0.35124115599255223
O 2.2348263161936694 0.6517803159549923 1.9094805223778903 0.7269890534475529
H 2.842829711963115 1.2917903890400104 2.410142080416927 -0.36985026824280176
H 2.8025727630892097 0.013595951210300262 1.3966037466967598 -0.36353203280827817
O 2.030065696001267 0.9159296299326238 5.384964128676256 0.7007703119932465
H 1.252780727194614 1.124631680933859 5.931475348289578 -0.3526732886588333
H 1.9232643551246247 1.2303161430805107 4.478706493043445 -0.35854830092439993
O 1.9957493269840976 6.603592021249554 3.91579622340819 0.7376297344899321
H 1.5299917663546598 7.14176357412062 3.1233102921285445 -0.3411998650044391
H 1.9967981181864725 7.111170497646135 4.655029327038221 -0.37396339974559134
O 4.814940552942825 6.032777743378503 2.480901136962123 0.7220925731051273
H 5.4781864132882 6.169698332394201 3.183648185022443 -0.34743358706059535
H 3.912306113414133 6.106477805573718 2.694758337513751 -0.37148892718710813
O 1.1441485464476022 4.011811164277223 1.4707276262902262 0.7128813237249159
H 0.8419090969166343 4.511045676780719 2.212702818241086 -0.35879214673021254
H 1.631532329104087 3.1785401435354688 1.6284618181325705 -0.3535366164807622
O 7.62066243255296 1.895546760137127 3.336877346002761 0.7234782061864198
H 7.103795553945048 2.7306159834895922 3.096862759793562 -0.35614029107183287
H 0.5029522771574366 1.7524018174577103 2.9065714776512572 -0.36582351827615545
O 4.781670764882808 3.9522729116105193 5.760945806213249 0.7171727434812685
H 5.072360811286273 4.6749329390760135 6.164096303950517 -0.36867278240278023
H 4.28417602893591 3.3758425168864563 6.251230352340484 -0.3664819030320763
24

O 4.266359592750625 2.3755301529052453 3.46561401609761 0.7285818427270858
H 4.141818917402417 3.1786270688318807 4.114274160221052 -0.36891128504158877
H 5.232510576913552 2.040476080959994 3.5767320083352216 -0.35246058585313245
O 2.234887393361183 0.6522629945716929 1.9105310599671417 0.7266214004443614
H 2.845440424234467 1.2922244314437856 2.4178346010751435 -0.36925224333629403
H 2.8062060355015674 0.01099315631441389 1.3973695579953322 -0.3626617098954681
O 2.0310610329920977 0.9154646273053179 5.384826026542323 0.6997173837651729
H 1.2554175349597723 1.1280473588465454 5.9256595471720965 -0.3518926694470197
H 1.9162761403472306 1.2341461512314897 4.47967300466448 -0.35708639841566137
O 1.9953257490148464 6.606238768954793 3.915242531579902 0.7379293134653144
H 1.5259023093726067 7.13771567605227 3.1248367743293186 -0.3418352660746514
H 1.995970599481617 7.104515070575783 4.64039945030064 -0.3750407894656784
O 4.814311209086066 6.031384513752844 2.480610515747017 0.7206265440737889
H 5.480032165712832 6.171617376256411 3.189568674632024 -0.34606125240968355
H 3.917317450482922 6.1003699112915 2.6978522152302373 -0.37152826090584756
O 1.1451033777908328 4.010998025005942 1.4721446280929393 0.7138295192045165
H 0.8430496959716723 4.5178415626537936 2.216314574027324 -0.3583284129621451
H 1.6338555241841113 3.184014139373951 1.6270054641308294 -0.3549860827283773
O 7.620516582863677 1.895222439797943 3.336649055042711 0.7224857228312165
H 7.1018743142364364 2.7384254933627146 3.1020764098413904 -0.35477722993994487
H 0.49998120543149815 1.7613779762079576 2.9112927302889715 -0.3663075403432585
O 4.780534568272091 3.949814836301005 5.758933315085222 0.7154734466660315
H 5.078222249629608 4.67885955362786 6.172455277705116 -0.36720186737379734
H 4.2892545030294 3.3836601088149965 6.250960462674336 -0.36693357898495416
24

O 4.266270189316145 2.3753676319834547 3.4656982332977266 0.729811986336367
H 4.1418633241184 3.1804396760360905 4.116837119311217 -0.3687712207233651
H 5.225575988039356 2.047048523804236 3.565039394325647 -0.3538012693275353
O 2.235017211835902 0.6527615509714033 1.9115966098748083 0.7263661624104778
H 2.847548060031411 1.291898842836274 2.424981502604269 -0.368644658682345
H 2.8093292059739654 0.00903940828958928 1.3986552136183241 -0.36181789897931527
O 2.032047866469781 0.9150033280652209 5.384694962758796 0.6985626969407632
H 1.2582054944057852 1.131452598736186 5.919633137716169 -0.3512613656425221
H 1.909254773084439 1.2379811071889542 4.480777218776752 -0.35576013000851014
O 1.9948390065664787 6.608799156886166 3.9143750119146836 0.7382888139398751
H 1.5229089662636655 7.132700698377556 3.1280374609167283 -0.3427547977554354
H 1.9951698134858935 7.100161765653558 4.62894174250558 -0.3757325972483656
O 4.813808515955733 6.029986332616585 2.480300545190905 0.7191490000131777
H 5.481091362248553 6.173479340849893 3.195126852145726 -0.3447596350530876
H 3.921013591426594 6.094429557980559 2.701665910553923 -0.37143938575366464
O 1.1460692147083382 4.010157599369062 1.4735185299466875 0.7146567449816177
H 0.8442678502161746 4.52462970762532 2.2204009761949974 -0.3577760750292618
H 1.635957653603255 3.189905419856426 1.6257785457423812 -0.3564025229026938
O 7.620346435533747 1.8949506353568124 3.3364087216094105 0.7215538711019818
H 7.100977434283301 2.7450875341619727 3.1074043080031344 -0.3535218208134737
H 0.4964037008464486 1.7706426321923445 2.916026042617509 -0.366735148506697
O 4.779425278850979 3.947300875242401 5.756725606470852 0.7135611061529086
H 5.084937875923339 4.685083623975554 6.1823140878770495 -0.3654962937037577
H 4.292998221097954 3.390034771699852 6.25225441396979 -0.36727556174707887
24

O 4.26623276001948 2.3752502479895523 3.465842031132873 0.7312228534191731
H 4.142250321635873 3.1809926254992775 4.118451836721837 -0.3687909907790914
H 5.217373158602334 2.0540525967786443 3.553261709934507 -0.35522091479586726
O 2.2352212564619265 0.6532755760424729 1.9126773881979302 0.7262311695687553
H 2.8491114511484326 1.2907742775514341 2.431541570292185 -0.3680426300919817
H 2.811900298007778 0.007782342074937228 1.400497106416601 -0.3610371639405513
O 2.0330296298292 0.9145467779622504 5.384563169965479 0.6973292842938863
H 1.2610557492206138 1.1348610242336745 5.913492619607898 -0.3507845210076215
H 1.902233542247799 1.2417941093472178 4.482047727880267 -0.35457378768481884
O 1.9942901608752917 6.611243822870551 3.913158347886397 0.7387500076938547
H 1.5209926133887834 7.126761249486795 3.1328611844206726 -0.34394782884892616
H 1.9943962108462023 7.0985274058366 4.621268068345504 -0.3760855147069265
O 4.813448061121893 6.028584710025713 2.479976864775293 0.7176593235437216
H 5.481266862098944 6.1752567674813745 3.200198591787432 -0.34356497391717034
H 3.923245112958395 6.088660921069047 2.7062322698404695 -0.37118416181996716
O 1.147035663567778 4.0093069066811164 1.4748577518540757 0.7153556688616969
H 0.845639197804549 4.531289527606781 2.2247912907420346 -0.357172333839197
H 1.6379281984690115 3.1960644666418156 1.6248187251952106 -0.35774006398109537
O 7.620138538492114 1.894739493690787 3.3361598280839964 0.720660235529879
H 7.101153282829928 2.7505045075442665 3.1128691391571306 -0.35241363027674755
H 0.49238505055200005 1.780165266970123 2.9206945218313787 -0.3670442368918032
O 4.778370190562553 3.94478540958356 5.754333391036346 0.7113865986238601
H 5.092265382700282 4.692966401268259 6.193302058639964 -0.3635320046892161
H 4.295216036878272 3.394743677439288 6.255312885622347 -0.36746038426392835
24

O 4.266232288490934 2.37518499142506 3.4660442918179837 0.7327622139090348
H 4.142986422892465 3.18025592308225 4.119096745840527 -0.36896269640875645
H 5.208132293767637 2.0614058228522896 3.5414381548430525 -0.35667384935634816
O 2.2355033998262415 0.6538048036979905 1.9137736880839509 0.7261961553091139
H 2.8501016452998047 1.2888264353574532 2.437484501149864 -0.3674498880187189
H 2.8138907400816313 0.007252695708845283 1.4029182366908675 -0.360345477853689
O 2.03400999712097 0.9140957265585649 5.384422876500824 0.6961072408029405
H 1.2638744154242705 1.1382883897237186 5.907338109871628 -0.35045712402623586
H 1.8952465777317256 1.2455592461213936 4.4835088473731926 -0.3536153020685666
O 1.9936817734100423 6.613551658733445 3.911573728811927 0.7393578588997904
H 1.5201100426135814 7.119962004774588 3.139219899398328 -0.3454070084045546
H 1.9936505298893852 7.099876096727464 4.617765810687067 -0.3761289973984385
O 4.813239144663711 6.027181303501316 2.4796446671499184 0.7161835679323507
H 5.480487773456667 6.176926564417853 3.2046848986179435 -0.3425052814861066
H 3.9239354429118936 6.083061522462603 2.711566442045967 -0.37075991493719285
O 1.1479919044586757 4.0084636616834395 1.4761705222684434 0.715926229812544
H 0.8472369299580862 4.5377012417408364 2.229317173748925 -0.35655613638550554
H 1.6398658797600345 3.2023300575459452 1.6241643298547879 -0.3589588217185977
O 7.619879859408554 1.8945953691394644 3.335906658424459 0.7198157006007537
H 7.102429458545571 2.7546077249182357 3.1184855885509006 -0.3514832047178127
H 0.4881047590073291 1.7899147119653513 2.925216744852546 -0.36721553712183397
O 4.777392123903333 3.942317056235697 5.751773202564361 0.7089762190933677
H 5.099951963285797 4.7018636956810465 6.205034558915582 -0.3613784362738789
H 4.295798979220833 3.3976614916614545 6.260258454131766 -0.3674275101836625
24

O 4.2662514166293155 2.3751782304051963 3.466302984206546 0.7343684092752951
H 4.144073317839981 3.1782221016309156 4.1187675234252366 -0.36927804938502884
H 5.198126038622769 2.069013408721615 3.5296054402578236 -0.35810557061340964
O 2.2358658979219306 0.6543491536898683 1.9148856911472871 0.7262505723796662
H 2.850501641287913 1.2860455966607396 2.442791043448111 -0.3668801885272832
H 2.815285426637305 0.007464224061102084 1.4059283347702278 -0.3597696054143539
O 2.034992685877347 0.9136506493734408 5.384266557082927 0.6948551866184562
H 1.2665659525827255 1.1417517428204027 5.901273568054566 -0.3502688314632707
H 1.8883287908131845 1.2492524739842026 4.485179611336557 -0.35285774752756527
O 1.9930181197610215 6.6157124751683165 3.9096232554387433 0.7401631038506629
H 1.52019039018051 7.112392314754037 3.1469839403319977 -0.3471090850532893
H 1.992934080467294 7.104274148735544 4.618532709794581 -0.3758946672695681
O 4.813184412915766 6.025777858882591 2.4793088875549976 0.7147480297217281
H 5.478709164767582 6.178470248931117 3.208511883537782 -0.3416022975143219
H 3.923086964025495 6.077622942714897 2.717662939849443 -0.37017051215960517
O 1.1489270499982267 4.007645637001109 1.4774645231511812 0.7163729438277691
H 0.8491290858141999 4.5437506521788436 2.2338191169328816 -0.3559570436089411
H 1.641875728791637 3.208534370431715 1.6238534797311859 -0.36003325145718335
O 7.6195580941783145 1.8945227487185017 3.335654100633207 0.7190330211239302
H 7.1048130781546845 2.7573575364954928 3.124261017443208 -0.35075247414999366
H 0.4837514261629745 1.7998603471525898 2.929509193459535 -0.3672405958973989
O 4.7765072576668235 3.939934743283069 5.749066706959831 0.7062782707140864
H 5.107755393290336 4.711174682604085 6.217141658652247 -0.35901960520313336
H 4.29473301143936 3.3987730706087222 6.267117837416641 -0.3671300122672565
24

O 4.266270494423482 2.3752356251783877 3.466615237831942 0.7359725337693126
H 4.145507891516829 3.174906668083462 4.117477512427859 -0.36972078723794155
H 5.187668598765978 2.076769159655548 3.5177961379722094 -0.35946155849017025
O 2.2363093881787357 0.6549087470318474 1.9160138086240388 0.7263806955357324
H 2.8503062784341977 1.2824362744925988 2.4474532235228703 -0.36635079221224454
H 2.816082778250341 0.008413647736565819 1.4095239639940522 -0.35932663016022104
O 2.0359812358851 0.9132117873124938 5.384087186229401 0.6935309086694681
H 1.2690373515203346 1.145268250501368 5.895398054234256 -0.35019475310344494
H 1.8815151356935262 1.2528520492473054 4.487072538854462 -0.3523005247718678
O 1.9923054558348927 6.617726958729991 3.9073305156826112 0.74119532715756
H 1.5211308992005785 7.104169763287265 3.1559763826302603 -0.3490158185982828
H 1.9922488786451154 7.111587362613567 4.623373246513168 -0.37539146056795214
O 4.8132799269691775 6.024376119986787 2.4789742994029043 0.7133725165356948
H 5.4759116861275245 6.1798741973762 3.211630778620377 -0.34087365095359135
H 3.920780425232829 6.072332026374625 2.7244941728255925 -0.36941788440783074
O 1.149830518326429 4.0068700047786905 1.4787466727314065 0.7166991610272508
H 0.8513766349860384 4.549332791437156 2.238151107121839 -0.35539821657835635
H 1.6440650508046426 3.214509859151354 1.6239228931567673 -0.3609433649040996
O 7.619162044771388 1.8945241663844954 3.335407434146819 0.7183136407697033
H 7.108290898778512 2.7587438074912236 3.1301959932338965 -0.3502310039431159
H 0.47951652746467643 1.8099729939618996 2.933489059537992 -0.3671119715906206
O 4.775724249686605 3.9376661060739067 5.7462401028196535 0.7032704877918281
H 5.115456612478617 4.720368091784536 6.229285104177128 -0.3564694488150417
H 4.292100707727159 3.3981730849564404 6.2758145836588195 -0.36652740492175195
24

O 4.26626764562284 2.375362008439489 3.466977386083375 0.7375058333112958
H 4.147282184898886 3.170349094441491 4.115258630533308 -0.37026744874542183
H 5.17711370530961 2.084558967496777 3.5060371945431275 -0.3606928558439879
O 2.2368329238889966 0.6554838630835588 1.917158463518124 0.7265464401719348
H 2.8495223008931667 1.2780170155229886 2.451474714606745 -0.36586343183776426
H 2.8162948502247414 0.010078700271724217 1.4136885940951651 -0.3590162794518349
O 2.036978769198614 0.9127792003256614 5.383878487589284 0.6920914635479452
H 1.2712024773536694 1.1488538725668274 5.889805439819035 -0.35021095316588113
H 1.8748400972636203 1.256338997335554 4.4891928141351976 -0.3519495924396028
O 1.9915522575862914 6.619606010946336 3.9047400960599714 0.7424634700936057
H 1.5227934798247897 7.095442725626216 3.165968942514121 -0.35107223262647036
H 1.9915974949265418 7.121489000174984 4.6318103618569175 -0.3746155145566974
O 4.813515658617631 6.022977719534856 2.478645509428119 0.7120669831960433
H 5.472100935213593 6.1811298619714075 3.2140177525546645 -0.34033096773510507
H 3.917167726305732 6.0671702056682335 2.732010723961803 -0.368500442099178
O 1.1506924267080245 4.006152775339857 1.48002297336661 0.7169067952087513
H 0.8540319611932329 4.55435503392989 2.2421844494556455 -0.3549052806002785
H 1.646538682507671 3.2200975359074664 1.6244065523984375 -0.36166561077488646
O 7.618682076367787 1.8946000972775294 3.335172100075054 0.7176459943612656
H 7.112829233738015 2.758786837923065 3.1362846783696012 -0.3499196893645853
H 0.47558715829233006 1.8202257297230797 2.937077468307971 -0.36681802945992326
O 4.7750444469578275 3.935527584298972 5.7433232067064255 0.6999311053841886
H 5.1228665622730345 4.728994488300652 6.241167824947781 -0.3537727991510584
H 4.2880712727288 3.3960524395413594 6.2861741792918995 -0.36555695742235617
24

O 4.266219357090193 2.3755610492831614 3.4673850079036512 0.7389029018244837
H 4.149383201931972 3.1646144529764535 4.112162791582235 -0.3708928602681272
H 5.166847766928443 2.0922591865822575 3.4943471914908506 -0.36175335626006444
O 2.2374338013066706 0.6560749979571788 1.9183201223260522 0.7267885712804394
H 2.8481686005313165 1.2728203205182202 2.454871334934895 -0.3654540212449925
H 2.815947462717984 0.012421881141898052 1.4183926772882984 -0.35887324967321144
O 2.0379877464595153 0.912352832600047 5.383635167758577 0.6904868731394238
H 1.2729863694574939 1.1525219535463762 5.884581375249052 -0.3502982179369931
H 1.8683372145301642 1.2596974511024321 4.491537751685579 -0.3518038858794028
O 1.9907695170215514 6.62136633217406 3.9019117436830344 0.74394661311176
H 1.525000402180005 7.086393832356573 3.176677129824039 -0.3532118809160989
H 1.990982686165518 7.1335268182426415 4.643182843951879 -0.37354393946311915
O 4.81387634866286 6.021584065533715 2.4783268548162902 0.7108320131308716
H 5.467306562441742 6.182233939825569 3.21567351722345 -0.3399762608126491
H 3.912459094345957 6.062119526726323 2.740143297507872 -0.3674174333803627
O 1.1515039868764403 4.0055078943897096 1.481298432516388 0.7169988901282898
H 0.8571378669110171 4.558739433584483 2.2458104250636017 -0.3545035965462502
H 1.6493936879939057 3.2251546030842757 1.6253342595308964 -0.3621782598453469
O 7.618110682723176 1.8947488302819773 3.3349534393798685 0.7170171178925084
H 7.11837370626634 2.7575387011608954 3.1425151122516124 -0.349814369850066
H 0.47213734963972653 1.8305945857371377 2.940203310050743 -0.36635071172773914
O 4.774462959526471 3.9335257754389517 5.740348166592347 0.6963301305562752
H 5.1298287702328675 4.736688699071498 6.252537741565506 -0.35100051513310615
H 4.282880964011462 3.3926745046813083 6.2979404065605795 -0.3642305521265008
24

O 4.266101304045349 2.3758348411353194 3.467832927679933 0.7401243934328572
H 4.151792871357053 3.1577952543510865 4.108263570051508 -0.3715786304937463
H 5.1572748874273335 2.0997440602095363 3.4827349767419102 -0.36261190820688083
O 2.238107655179611 0.6566828465611022 1.9194992058485139 0.7270472448168275
H 2.846276609465618 1.2668926818139097 2.457671664533457 -0.36510671299931363
H 2.815080242263243 0.01538856496012408 1.423593766333553 -0.35887349304481386
O 2.039009742144318 0.9119325864984894 5.38335311323041 0.6886960777991102
H 1.274329292971365 1.1562817534822354 5.879800514344772 -0.350469933685018
H 1.8620386113985996 1.2629148949971067 4.494096504337133 -0.35185631916799986
O 1.9899709236946528 6.623026485340584 3.89891483487216 0.7456297461783605
H 1.5275320660727754 7.077241054292536 3.187758838010195 -0.35535571487656004
H 1.9904069149022463 7.147184590959951 4.656734529487931 -0.3721793592977136
O 4.814342616753384 6.020196235582543 2.478022216242541 0.7096784501608595
H 5.461581222688061 6.183188515825027 3.216622849779092 -0.3398045254242449
H 3.9069065088143002 6.0571620363543985 2.7488061423153747 -0.36618623439690134
O 1.1522578755680677 4.004946761866662 1.4825770448395885 0.7170076423463163
H 0.8607270412316524 4.562424325443616 2.2489419111570252 -0.3542351276256497
H 1.6527140731754626 3.229562160889062 1.6267302455050667 -0.3624723280873846
O 7.6174430773074455 1.894966337271266 3.3347564339226268 0.7164211989408413
H 7.1248488781502815 2.755084970012264 3.148869414165234 -0.34990313421572716
H 0.4693190929851338 1.841058851837392 2.942807100431124 -0.3657162467914934
O 4.773970337480584 3.931659759755013 5.737348179849205 0.6925023089573641
H 5.136216917140599 4.743161155087069 6.26318457383493 -0.3482518846322106
H 4.276808656571535 3.388346480226561 6.310799402119693 -0.36250550968690065
24

O 4.265889624884774 2.37618335458656 3.4683151739466305 0.7411402884451361
H 4.154488053827663 3.1500134862482985 4.103658119130081 -0.3723104809533805
H 5.148796993909584 2.1068922076300827 3.47119828199853 -0.3632414936746182
O 2.2388483903666656 0.6573082691518062 1.9206960738831775 0.7273109308234988
H 2.843890742191099 1.260294668096702 2.459917689311299 -0.3648290218864001
H 2.8137466137126546 0.018907132407243735 1.4292367017269798 -0.3590037481328575
O 2.0400452657884913 0.9115184170281871 5.383029541006745 0.6865396169851936
H 1.2751902788129752 1.1601372168008663 5.875524021662783 -0.35061740845494926
H 1.8559745350162424 1.2659823090905302 4.496850002652003 -0.3520520430803704
O 1.9891729712484578 6.624603772508849 3.895823802066432 0.7475016508470915
H 1.53012571360572 7.06823781688046 3.198814606804676 -0.3574146281044095
H 1.9898720070643412 7.1619317483361895 4.671686353526861 -0.3705575546703964
O 4.814892065342005 6.018814896431123 2.4777348139465487 0.7086154583968578
H 5.454999390224301 6.184001177382806 3.216914053561521 -0.3398028823813386
H 3.9007875164681325 6.052280950818379 2.7579008278681685 -0.3648317309654663
O 1.1529485532065182 4.004477739305588 1.4838618192387953 0.7168798369108806
H 0.8648218969554394 4.565365141305609 2.2515143711778154 -0.3540449173761864
H 1.6565659563169977 3.233232072127331 1.6286118817915929 -0.3625506384307774
O 7.616677766938349 1.8952461234177327 3.334585479714509 0.715851289471378
H 7.132157518329098 2.7515472801406156 3.155323833018757 -0.350165582795659
H 0.4672539413716805 1.8516009312450468 2.944844483145187 -0.36492779467133185
O 4.773554338373962 3.929923460961229 5.73435603567714 0.6884389378260409
H 5.141931789414154 4.74818865454765 6.272935970178015 -0.34552913952962405
H 4.270150578434694 3.3833909012554004 6.324406403521763 -0.3603989445983683
24

O 4.265562277939485 2.37660383675279 3.468824818154582 0.7419262309636048
H 4.157440493687228 3.1414223374386916 4.098469877345446 -0.37306479163323947
H 5.1417929209955675 2.113593207766071 3.459723517427558 -0.3636276008340579
O 2.2396481361729577 0.6579522303443448 1.9219109410138433 0.7275813440433516
H 2.8410691915334527 1.2531013688978663 2.4616657767107286 -0.36463065680243
H 2.812013608365133 0.022889277948578243 1.4352539165580445 -0.35924968584161354
O 2.0410936187905517 0.9111103736872681 5.382663085445619 0.6840454561576137
H 1.275549599762183 1.1640855759774598 5.871798286416996 -0.35076583352827306
H 1.8501729519193875 1.2688942216097732 4.499771234029572 -0.3523848688901021
O 1.988394667897576 6.62611165173958 3.892713210233858 0.749534259561146
H 1.5324801769279544 7.059667128416749 3.2093971747550167 -0.3593046782612388
H 1.9893790412269663 7.177271643717004 4.687305052487947 -0.3687240141469149
O 4.8155003583819225 6.017440247190778 2.4774669948230734 0.7076427838978996
H 5.447655943397111 6.18468508125173 3.2166181986678386 -0.33995222945927284
H 3.89438965619076 6.047461499691967 2.7673203562014295 -0.3633773648997899
O 1.1535724939534997 4.00410576418491 1.4851548242033359 0.716651853844229
H 0.8694346223191143 4.56753539532481 2.2534861164750906 -0.35397227804112574
H 1.660993114868346 3.2361127843964006 1.6309885161920081 -0.36241139687503066
O 7.615817001602317 1.8955791370664492 3.3344441991485514 0.7152896283640715
H 7.140180372549541 2.7470853573240244 3.1618489143047577 -0.35057422775654046
H 0.46602599779330944 1.862205804562882 2.946289004093238 -0.3639951433874271
O 4.773201544405208 3.928307807263737 5.731402821278405 0.6842677855218537
H 5.146898015059694 4.751604885081477 6.281653005219389 -0.3429477113457329
H 4.263198376192726 3.3781214839277034 6.3384108008184645 -0.3579568606510022
24

O 4.265100859353676 2.377090143297469 3.4693537695556094 0.7424776965540805
H 4.160616993435354 3.132210554764893 4.092850632662072 -0.3738212271183392
H 5.13658823923428 2.1197560361569048 3.448286901746413 -0.36376965223913194
O 2.2404972156746226 0.6586157888910851 1.9231438506666159 0.7278539682995531
H 2.8378844578688165 1.2454023538746986 2.462987258202435 -0.36451276649200304
H 2.8099619039833574 0.02723024525506537 1.4415657085958087 -0.35959007037166746
O 2.042152832205517 0.9107086778942467 5.3822538270890625 0.681220492749335
H 1.275410270286285 1.1681167098546594 5.868653829067158 -0.3508992157320715
H 1.8446592318632338 1.271648633487372 4.502825739068288 -0.3528381025101608
O 1.9876568636295482 6.627558889113705 3.889654305627614 0.7516622520680982
H 1.5342665689843527 7.051830155500237 3.2190295533441344 -0.36095418301204873
H 1.988928301402868 7.192764002171118 4.702939531567637 -0.3667111220509961
O 4.816142256729175 6.016071980933856 2.4772199964833934 0.7067565119986556
H 5.439664732063277 6.185259007396761 3.2158283274742483 -0.3402259045527186
H 3.887995455720156 6.042691481508144 2.776953610426397 -0.36185247703974976
O 1.154128441009789 4.003832104534285 1.4864572337926516 0.7163014849690419
H 0.8745674609225084 4.56892687594832 2.2548385333713563 -0.3540198233898906
H 1.6660139115518953 3.238192678392254 1.6338606417234431 -0.36203111543054023
O 7.6148670539395775 1.895953764167581 3.3343352940776527 0.7147169748379396
H 7.1487764366822555 2.741898203321939 3.168409963993668 -0.35109881311219593
H 0.4656771491305918 1.8728599840128006 2.94713394821561 -0.36292918884069847
O 4.772898404209343 3.926802180248568 5.728517158117937 0.680113201915487
H 5.151060707318481 4.753291525226581 6.289225686121026 -0.34060681008796956
H 4.256225735460761 3.372828815758437 6.3524726341417015 -0.3552421114119866
24

O 4.264492351630574 2.377632212482868 3.46989253390276 0.7428124932233524
H 4.163979970521527 3.122601926569278 4.086981483551255 -0.37457219263401276
H 5.133427494412507 2.1253167139788154 3.436857305665769 -0.3636750459129653
O 2.241384186787276 0.6593000577939029 1.9243946110787735 0.7281138716074509
H 2.8344234492632596 1.2373012747664216 2.4639687003444806 -0.36446839254196783
H 2.8076849753949875 0.0318097983351301 1.4480810709806813 -0.35999535778736924
O 2.043219672342613 0.9103137790470303 5.381803264954082 0.6780857945449417
H 1.2747982061463186 1.172212819348242 5.8661052049595845 -0.35099338127443225
H 1.8394559389710528 1.2742468307670425 4.505972405176651 -0.3533803038261363
O 1.9869812830159472 6.62894974724726 3.886712372902451 0.7538989603767365
H 1.5351435269799214 7.04503109676843 3.227228884185984 -0.3623058161431578
H 1.988519437061833 7.20803829719189 4.7180392071000705 -0.36465640444594416
O 4.81679242534516 6.014709274767419 2.4769937798395008 0.705957566395794
H 5.431156846857938 6.185747322990007 3.2146583273331046 -0.34059201515074244
H 3.881871344862778 6.037961425459139 2.786689049475973 -0.3602986634082177
O 1.154617442135401 4.003654300583199 1.4877693452061491 0.7158742097593966
H 0.8802130444608036 4.569549759849126 2.255576060110633 -0.35417253861375975
H 1.6716198823524029 3.239500477547705 1.6372194011182295 -0.3614714637138793
O 7.6138383661012705 1.8963557962124988 3.334260480260692 0.7141188688879345
H 7.157783281319466 2.7362256623844847 3.17496733402382 -0.3517049089283236
H 0.4662045389554008 1.8835504043080147 2.947393082707994 -0.3617499338473589
O 4.7726320650615905 3.9253955581721107 5.725724557901639 0.6760875424124726
H 5.154382576693692 4.753170683300073 6.295569000061534 -0.33858465125295334
H 4.2494778827508455 3.367769610154577 6.366276679097583 -0.3523282377268202
24

O 4.263730524317877 2.378215644731701 3.470429846375585 0.7429553922683723
H 4.167488105305947 3.1128563998547465 4.081074311696006 -0.3753108674850829
H 5.132451310472111 2.130243809882683 3.42540062831404 -0.3633574018163802
O 2.242295963316387 0.660006126719346 1.9256627097745171 0.7283525960540775
H 2.830787113842542 1.2289149540711741 2.4647116856149083 -0.3644910177857573
H 2.8052874462445683 0.03649431006433887 1.4546993629813412 -0.3604383330126649
O 2.0442897224726293 0.9099264303409554 5.381314236547413 0.6746933535940329
H 1.273761118051992 1.1763485635038589 5.86415168475788 -0.35103137036205245
H 1.8345827022241608 1.2766930729421901 4.509164517569453 -0.3539721936493663
O 1.986388846449358 6.630285474937233 3.8839441841521665 0.7561588326226159
H 1.534783479010842 7.03955278303779 3.233544992129257 -0.363320138712651
H 1.9881516138420723 7.2227931683704885 4.732155117803422 -0.36261421275958494
O 4.81742612442703 6.013350812488095 2.4767869652828876 0.7052491483384569
H 5.42227799198508 6.1861796886287435 3.213240771561034 -0.34101556615377715
H 3.876259457742896 6.033264508727517 2.796417825533227 -0.3587650931671734
O 1.1550427898506297 4.003566307722329 1.4890905923403805 0.7153385055868959
H 0.8863548289805865 4.569432630930935 2.255726084432792 -0.3544162471313357
H 1.6777761571466308 3.2401035433310987 1.6410468887230418 -0.360716439730715
O 7.612745376517822 1.8967685862793489 3.334220474375431 0.7134833881432214
H 7.1670191473844795 2.73034745629025 3.1814774054480113 -0.3523551926270393
H 0.46756143434016734 1.8942630543519898 2.9470999218130864 -0.3604829957892536
O 4.77239084467542 3.924077200555411 5.723047088883377 0.6723034489426474
H 5.156841652989694 4.751198953087786 6.300619696836932 -0.3369390531841485
H 4.243166207361636 3.363161628880723 6.379540848869195 -0.34930854218330853
24

O 4.262816710542341 2.37882184825795 3.4709525525510587 0.7429267750712909
H 4.1710979109006106 3.103265330420399 4.075368461136427 -0.37602720590679206
H 5.133682415481775 2.1345409244429505 3.4138850919226424 -0.3628309886455806
O 2.2432179912913943 0.6607349132738015 1.9269471685197859 0.7285693929781061
H 2.827090451881685 1.2203727993790245 2.465332889412004 -0.3645793476340321
H 2.8028828137901303 0.041139911082519326 1.4613127982121525 -0.3608934654924487
O 2.0453575426345467 0.9095479815304076 5.380790864855041 0.6711388300219143
H 1.2723662959905515 1.180491646541601 5.862778625379436 -0.3510041127403346
H 1.8300561519334935 1.278994227774275 4.512351017856143 -0.35458023897684277
O 1.9858977294450126 6.63156646221341 3.8813959757178718 0.7583654975760856
H 1.532903135819627 7.0356299131950015 3.2376028467577544 -0.36397279918073233
H 1.987823622139197 7.236784398944271 4.74492807712527 -0.36066298430545707
O 4.818019811721286 6.011994835485887 2.476596871395007 0.7046231349538365
H 5.413184999936618 6.186590481248431 3.2117236373489764 -0.3414599523465597
H 3.8713717163516987 6.028596304800471 2.806036398709739 -0.3572933976849332
O 1.15540984289129 4.003558811631444 1.490419528310317 0.7146994647319829
H 0.8929677072975795 4.568622217629692 2.255338569461886 -0.3547363381530513
H 1.6844237162313493 3.2401028530397142 1.6453166169280025 -0.35978680338121594
O 7.611605980958099 1.897173471442333 3.334215014572422 0.7127936685548117
H 7.176287035214007 2.7245776216337494 3.1878941926389013 -0.3530065514992756
H 0.469661185694198 1.9049816911024242 2.9463056277287287 -0.3591554236343303
O 4.7721643010107435 3.9228368658671307 5.720503476914895 0.6688964977374918
H 5.158429395706236 4.747362512381878 6.304333530018328 -0.33572439298154366
H 4.237468964300483 3.359185106889513 6.392017198150739 -0.346299259062394
24

O 4.261759816430539 2.379428584823099 3.4714456379591723 0.7427481123732245
H 4.174765672638444 3.0941438703417607 4.07012500463006 -0.3767091121558752
H 5.137023575315587 2.1382455500532815 3.402286532741347 -0.36211503780400756
O 2.244134574546444 0.6614870924849524 1.9282464820260938 0.7287613994332234
H 2.8234606670926574 1.2118143776209436 2.465962384614447 -0.3647292634683633
H 2.800590449731261 0.0455961361879648 1.4678092472640965 -0.3613374012537569
O 2.0464168715949485 0.9091803057380551 5.380238321004556 0.6675520331505249
H 1.2706974240548594 1.184603830520376 5.861959386923148 -0.3509073329467589
H 1.8258899557381698 1.2811593215555566 4.515477955475661 -0.3551801472564835
O 1.9855213727520091 6.632794384055146 3.879101595318385 0.7604211161543859
H 1.5292947286690426 7.033423421511086 3.239143624548428 -0.36424867038350417
H 1.9875340795465448 7.249817294688866 4.756077424051736 -0.35886927499459065
O 4.818551504380788 6.010639222243968 2.476419717340892 0.7040846233530285
H 5.40404153427483 6.187017904651398 3.210265808386289 -0.3419142418878409
H 3.8673884931757367 6.023954370232183 2.8154477368108006 -0.3559145758709954
O 1.155725753028788 4.003619668185302 1.4917537953870055 0.7139882600734431
H 0.9000186838883267 4.567183033006187 2.254485592383304 -0.3551136596346991
H 1.691483063707117 3.2396263624861796 1.6499944691184212 -0.35873378175735404
O 7.610440755257538 1.8975503759222376 3.334242926209028 0.7120290467149453
H 7.185380370028944 2.7192558738583474 3.194171364056096 -0.35361509368407895
H 0.472383648612935 1.9156868235424316 2.945075896568896 -0.35779185698496796
O 4.771943220644787 3.921664875457947 5.7181091659689836 0.6660132658543418
H 5.159149711913271 4.741674333025224 6.306683855966603 -0.33499921692411483
H 4.232532407648244 3.3559845670902604 6.403492207398246 -0.3434191900996778
24

O 4.260575515308655 2.38001112687352 3.471892653510194 0.7424488965133382
H 4.178450084325583 3.085817126169144 4.06561570219173 -0.3773488834106665
H 5.142267751944985 2.141424517092209 3.3905927212490385 -0.3612344308709974
O 2.2450293420425673 0.6622630066464987 1.9295585709649479 0.7289167157346981
H 2.8200337904544273 1.2033855621240757 2.4667404540631384 -0.3649280059041947
H 2.798531255447652 0.04971107192519633 1.4740761308055719 -0.3617494387103214
O 2.047460861711595 0.9088256801058652 5.379662547694698 0.6640605019573833
H 1.2688506632607155 1.188642289877363 5.861657628907571 -0.35073363071780805
H 1.8220949644143247 1.283198994200962 4.51849008402293 -0.35574584486454397
O 1.9852668733317587 6.6339739095380965 3.8770813443833783 0.7622159208389332
H 1.5238512445895083 7.033001842242139 3.2380550637211583 -0.36413842965378784
H 1.9872816232219435 7.261739360201314 4.765389568459141 -0.3572829562251153
O 4.819001149788183 6.009281584182502 2.476250886651291 0.7035557154094774
H 5.39501309437162 6.187502686508321 3.2090315477517137 -0.34228525457616077
H 3.8644575586993644 6.019337820889742 2.824562445072761 -0.3546600262787144
O 1.1559991366777036 4.0037344118910685 1.49309011623417 0.7131530159872999
H 0.9074677184852656 4.565196656348301 2.2532604345238476 -0.35552196293046645
H 1.6988587409496307 3.238821853737372 1.655039872555836 -0.3575324531622487
O 7.60927189640857 1.8978787886834525 3.3343021690692196 0.7111740900390877
H 7.194092328843484 2.714732856144883 3.2002652980225963 -0.35414101635566353
H 0.475583111688125 1.9263550686814368 2.943487267351686 -0.3564183645495067
O 4.771719433421919 3.9205519575293035 5.715876516638928 0.6637631692971953
H 5.159018524394035 4.73417260673601 6.3076609524592895 -0.33479835984296025
H 4.228474036681 3.3536727746435315 6.413784180732793 -0.340768967724292
24

O 4.259284790331769 2.380543686400044 3.472276350949712 0.742059656716449
H 4.18211483746421 3.078604641800536 4.062110373716059 -0.3779407363780657
H 5.149118629129439 2.144166829380358 3.3788059576531277 -0.3602154678936923
O 2.2458858622253817 0.6630625581910691 1.9308807407173607 0.7290175016780183
H 2.816950596995995 1.1952340792982608 2.467813631146683 -0.3651611948704351
H 2.79682216139928 0.0533376091397414 1.4800050862640675 -0.36210789339187777
O 2.0484823341348783 0.9084867037505855 5.379069986647689 0.6608104838413567
H 1.2669303452698133 1.1925611814013752 5.861829796020115 -0.3504756053839485
H 1.8186794471604486 1.2851248893247333 4.521332551316304 -0.3562480691474058
O 1.9851341057484226 6.6351137027198845 3.875341939864166 0.7636161757605873
H 1.516580109777026 7.034333812723504 3.2343842594521197 -0.3636338625834359
H 1.987065011818065 7.272432284927909 4.772706112301884 -0.3559498133861021
O 4.819351042009819 6.007919393111515 2.476085314009521 0.7030565023884594
H 5.386261409038275 6.1880867256231795 3.2081835608338083 -0.342577519273207
H 3.8626937534387693 6.014746902340884 2.833299693085101 -0.3535612681443745
O 1.1562396812502518 4.0038868488305805 1.4944242972666097 0.7122216359130484
H 0.9152688454120429 4.562760408815465 2.251775977033995 -0.355928089936583
H 1.7064441570812987 3.237848462080677 1.6604071500648983 -0.35624421163617714
O 7.6081220878524265 1.8981388134140689 3.3343899258351644 0.7102200407589878
H 7.2022247831386235 2.7113536656832253 3.2061378369244906 -0.354545756990406
H 0.4790973416322289 1.9369589096673472 2.9416229537417133 -0.3550670285474089
O 4.771485648239571 3.9194890808752283 5.7138149067885475 0.662207726438927
H 5.158063869978689 4.7249203079984445 6.30727209753109 -0.3351188289865118
H 4.225384958978617 3.352333667520685 6.422741483298818 -0.33843437694620326
24

O 4.257912061291413 2.3810013121717892 3.4725797872087623 0.7416045780567655
H 4.185731490007303 3.072798743882182 4.059858850649456 -0.37847569968205674
H 5.1572174418277354 2.14657521853217 3.366943654063492 -0.3590838969060458
O 2.246688390453411 0.6638851573835216 1.9322097280025274 0.7290537460200839
H 2.81435073568671 1.1875035255158466 2.469328928464169 -0.3654186040202535
H 2.7955701959943715 0.05634030617077996 1.4854970085590316 -0.36239797877917135
O 2.0494740295478695 0.9081661645243795 5.378467284311166 0.657837045909679
H 1.2650446335311503 1.196313323168917 5.862427613356485 -0.3501214999417813
H 1.8156493750713294 1.2869489995233137 4.523952592168487 -0.35664690297470614
O 1.9851157435639404 6.636226549985469 3.8738776179417664 0.764574715580904
H 1.5076026942812184 7.037293130375244 3.228330658274455 -0.36273397199752755
H 1.986883201469188 7.281806001063007 4.777913933251007 -0.3548984637109205
O 4.819586198005759 6.006550133152687 2.4759179757873455 0.7025642711753295
H 5.3779376518144355 6.188810898459907 3.2078744192461492 -0.3427622592171705
H 3.8621796013530525 6.010182566089452 2.841587791678606 -0.35263973115799563
O 1.1564577195444443 4.004059690742683 1.4957512947699445 0.7112000176365874
H 0.9233715179197597 4.5599854392544374 2.2501622980656975 -0.3563032195793375
H 1.7141270502271415 3.236868850051558 1.666047032727032 -0.354903842944429
O 7.60701317744931 1.8983126144737534 3.334502651445738 0.7091599458832691
H 7.209600114970155 2.709434761474763 3.2117597088921603 -0.3547928874953892
H 0.4827568452083764 1.9474668864364286 2.939568709862711 -0.3537695831313449
O 4.771235202834672 3.91846717565331 5.711930864355273 0.6613721632259171
H 5.156326519670901 4.714005823452344 6.305542437131077 -0.33591370647329577
H 4.223333097265772 3.3520260748009427 6.430239430598145 -0.33650423547713315
24

O 4.256483167436734 2.381361963525435 3.472787717945192 0.7411035265674988
H 4.1892819142721 3.0686402604571814 4.05907029423455 -0.37893916932511285
H 5.166171736250093 2.1487575409698856 3.3550369725078957 -0.35786811411123565
O 2.247422682555247 0.6647297542783844 1.9335418556208914 0.7290179691601317
H 2.8123655851769254 1.180326428640359 2.471426709522644 -0.3656889865840963
H 2.794866990447293 0.058601827307411154 1.4904666866430247 -0.36261099501036065
O 2.050428827394551 0.9078663180126048 5.37786079677432 0.6553449886410376
H 1.263301429028171 1.1998517726655167 5.863400420321239 -0.34971181587059375
H 1.8130087495349725 1.2886831106706285 4.526301211356158 -0.3569627926702321
O 1.9851981350233578 6.637328654037909 3.8726721486086544 0.7649706525014988
H 1.497140155571032 7.041674785599452 3.220221222113723 -0.3614358098541569
H 1.9867357568383002 7.28980421630434 4.780941994757766 -0.3541444849259854
O 4.819694697223797 6.0051714650735795 2.475744426794307 0.702044009576599
H 5.37017591130905 6.189712809374318 3.208237694581447 -0.34280727731910154
H 3.8629666292685956 6.00564605939105 2.8493644702589176 -0.3519056307403685
O 1.1566638461186076 4.0042351888355485 1.497065344831314 0.7100964353360137
H 0.9317222682553087 4.556993954032214 2.248563104911055 -0.3566247483278222
H 1.721794557231951 3.2360419019710833 1.6719081508851819 -0.35354186052452086
O 7.605964873621314 1.8983859892398005 3.3346361159962257 0.7079843724123689
H 7.21607329514842 2.709238478068535 3.2171136981424198 -0.3548503219620339
H 0.4863934118079859 1.9578440962821186 2.9374089583346286 -0.35255130316509353
O 4.7709618458920104 3.917476854544891 5.710228080256755 0.661358395831956
H 5.153861359083439 4.701545016819471 6.302516927867116 -0.3372209584984269
H 4.222365455516564 3.3527863637947988 6.4361781322570035 -0.33505608113798924
24

O 4.255023581458221 2.381608358250781 3.4728879838811992 0.7405810414673939
H 4.192759667911949 3.0662965851895843 4.05989396941211 -0.37931890601935725
H 5.175583919555084 2.150819266286228 3.343127970178735 -0.35660025378628446
O 2.248076811600143 0.6655948594587725 1.9348732096867474 0.7289007470758575
H 2.81111088865523 1.1738173638695175 2.474233150823941 -0.36595959463564187
H 2.794783010834768 0.060029655728097514 1.4948475951848508 -0.3627392002667186
O 2.051339982571938 0.907589855297067 5.3772567339700466 0.6533920315018908
H 1.2618048283670396 1.2031312946024268 5.8646971883483605 -0.3492418085721928
H 1.810759971605551 1.290338120953175 4.528334658695662 -0.3571752538619598
O 1.9853629728008892 6.638438334811106 3.8717017714097564 0.7647618404048511
H 1.4854869786017886 7.047220119687593 3.2104710049580456 -0.35975633657841377
H 1.9866221726204167 7.296383978293052 4.781748392873995 -0.35370475656685096
O 4.819667998948276 6.003781384609647 2.4755612885684184 0.7014673049690032
H 5.363087531176761 6.190824590062916 3.209379735712965 -0.3426916386448864
H 3.8650761993567015 6.001138559686369 2.856577314141796 -0.351361427272296
O 1.1568684469312378 4.004395723527693 1.498360156826085 0.7089218521482812
H 0.9402665491726112 4.553915798402072 2.247131238695909 -0.3568669729788485
H 1.7293376025430711 3.2355167058297636 1.6779384038989213 -0.3521942649660512
O 7.604993654323916 1.8983497829759926 3.3347854733850597 0.706683509161514
H 7.221541870908949 2.7109497386641648 3.2221968201636138 -0.3546908057285538
H 0.48984741034804513 1.968053000177891 2.935223529689865 -0.35143189103969363
O 4.770659490106606 3.9165080669138748 5.708707336900803 0.6621150617347371
H 5.150739112665871 4.687684129022294 6.298263141290562 -0.3389528296721295
H 4.22250996170349 3.3546305980356776 6.440480715797476 -0.3341374478736734
24

O 4.253557213432592 2.38172932731927 3.4728726545155024 0.7400594572116082
H 4.196170075231287 3.0658450360669427 4.062404115238963 -0.37960085185633385
H 5.185069657886831 2.1528585686020856 3.331266534424181 -0.3553127130589858
O 2.248641921246878 0.6664785741336762 1.9361998512837362 0.7286899468959342
H 2.81067973393002 1.1680667668938465 2.4778528845968077 -0.3662163840889888
H 2.7953625998577345 0.060561948898217796 1.498595940390099 -0.36277405544848573
O 2.0522012618952474 0.9073392338509125 5.376660733807594 0.6520201623988946
H 1.2606520303701547 1.2061096761266246 5.866268261362242 -0.3487171728898375
H 1.8089042276605125 1.2919234410658549 4.530015821478533 -0.3572718102300082
O 1.9855891957119467 6.63957456307844 3.8709381911164162 0.7639628914228263
H 1.472980710106249 7.053643383282093 3.1995407234931466 -0.3577383009028231
H 1.986542231639413 7.301522126565052 4.78031893789582 -0.35359892315990726
O 4.819501210848131 6.002378378166745 2.4753666968035684 0.7008235179979909
H 5.3567562304910314 6.192170729913792 3.211372021580559 -0.34240743773507176
H 3.8685002321766073 5.996660830540104 2.86318425559877 -0.35100940895092625
O 1.1570813957965076 4.0045243525557765 1.4996291959796226 0.7076867854423705
H 0.9489507487391169 4.550884229739599 2.2460230670172048 -0.35700056238849054
H 1.7366543254265239 3.2354281154289586 1.6840860857437638 -0.35089977296341035
O 7.604112014211745 1.8982009655602523 3.334945354715857 0.7052519375353334
H 7.225952592357063 2.714657941182637 3.2270211722925364 -0.3542905303495827
H 0.49297313908199386 1.9780543643040445 2.93308534757604 -0.3504313446153433
O 4.77032199427989 3.915549792524731 5.707366387472355 0.6635711724534399
H 5.1470485100133985 4.6726031403108115 6.292874466173903 -0.34103210390774585
H 4.223776904436856 3.357556264668639 6.4430920452029135 -0.3337644988124331
24

O 4.25210542373875 2.3817205749313355 3.472738766010907 0.7395548288172611
H 4.199528899775909 3.067264829826468 4.066591849472571 -0.37976733782827377
H 5.194274296333715 2.154962456157563 3.3195069262227324 -0.3540363449719669
O 2.249112921136829 0.6673786987574133 1.9375181151546126 0.7283768152431682
H 2.8111355174462918 1.1631351093864075 2.4823615100902634 -0.366446191986461
H 2.7966206008851753 0.0601715551196891 1.5016932526010007 -0.3627090413304641
O 2.053007096116385 0.907116793161987 5.3760777515615565 0.6512609659238364
H 1.2599307299409128 1.2087488750922148 5.868066859745147 -0.3481534744926036
H 1.8074418664168919 1.2934464567993058 4.53131544149304 -0.35724647390424724
O 1.9858549012237883 6.640755519040465 3.8703513595827 0.7626231672049779
H 1.4599715543528184 7.060656896709167 3.187896257590346 -0.3554458165694162
H 1.9864958657952294 7.305210577268994 4.776662680808714 -0.3538394674170987
O 4.819193276472135 6.000961558549415 2.475160642740931 0.7001084409609228
H 5.351234634134474 6.193766197322706 3.2142450939652134 -0.34195083180673935
H 3.8732017199168003 5.992212908898816 2.869154187469278 -0.35084963226672716
O 1.157311722751026 4.004605382851911 1.5008660675299919 0.7064030422395067
H 0.9577244146065066 4.548030524468103 2.245391377774987 -0.3570019454591914
H 1.7436530452692318 3.2358931162530196 1.6903009109224436 -0.3496924019242308
O 7.603328075268395 1.8979431652066197 3.3351100302225976 0.7036878652972958
H 7.2293034295523535 2.7203474032006354 3.231613191696503 -0.353629788581871
H 0.4956429785493006 1.9878083378830071 2.931058603946685 -0.3495683499749671
O 4.769942945471149 3.9145896988170166 5.706199703227428 0.665631212323941
H 5.142899177276106 4.65652042964402 6.286474377091639 -0.34336979766048203
H 4.226159441717921 3.3615429959216185 6.443978488781636 -0.33393944183616764
24

O 4.250686582439386 2.3815846689742917 3.4724884912739022 0.7390774382194296
H 4.202859833453733 3.0704391249116143 4.072365538891032 -0.3797985161019789
H 5.202882669932431 2.157204788684529 3.307904607609143 -0.3528002014069781
O 2.2494888840657876 0.6682928768479612 1.9388249284666483 0.7279605728978613
H 2.8125067133577164 1.159049067064529 2.487799744175797 -0.3666380157263974
H 2.7985410048289174 0.05886770745962562 1.5041472355547856 -0.36254184923604416
O 2.053752688105245 0.9069246751827412 5.375511907098807 0.6511401358923965
H 1.259717089710275 1.2110159481159737 5.870050299892806 -0.347574110049121
H 1.8063727141645252 1.294912095896115 4.532213025413084 -0.357102312995638
O 1.9861387196316709 6.641997591966728 3.8699113428350054 0.7608440561222047
H 1.446800507390439 7.0679880223136236 3.1759809258423837 -0.352959891759415
H 1.9864831782175245 7.307455987628309 4.770810308158879 -0.35445921814727044
O 4.818747041238931 5.999530760234967 2.47494513443636 0.6993128547315308
H 5.346542959756562 6.195615196674256 3.2179852735157453 -0.3413158504710252
H 3.8791150092976907 5.987793815976758 2.8744676912140004 -0.3508738862457955
O 1.1575673342915067 4.004624902410703 1.5020649610125947 0.7051090429738112
H 0.9665423838531475 4.5454782514724625 2.245377484711365 -0.3568565440918875
H 1.7502545272838994 3.2370083022650484 1.6965348827695426 -0.3486235518659596
O 7.602645594539481 1.8975865562697738 3.335273628450457 0.7019891594951824
H 7.231640670121399 2.7278980986121053 3.236011397486995 -0.35269496337125406
H 0.4977501490200817 1.9972753421340226 2.9291975302428037 -0.34885417457670753
O 4.769515512472839 3.9136139102342606 5.7051981973064905 0.6681780276368081
H 5.138424082759876 4.639696296050649 6.279220119619812 -0.34586414163273727
H 4.229633453494767 3.3665526608108394 6.443128648289796 -0.3346540602910849
24

O 4.24931589444098 2.381330352963159 3.472128757845247 0.7386389520036458
H 4.206191281438702 3.075166791892999 4.079559593478616 -0.37967784013838524
H 5.21062502513867 2.159645441979257 3.2965135014272247 -0.35163389987946403
O 2.249773166536167 0.6692187299912037 1.9401180832295417 0.7274442694957657
H 2.8147842049871445 1.1558002317478402 2.49417001702337 -0.36678011711814684
H 2.8010778206899487 0.05669519933885266 1.5059907906771555 -0.36227278661187456
O 2.0544340873777154 0.9067647855628159 5.374966379815688 0.651650313173296
H 1.2600742177327742 1.212883777262968 5.872180960711073 -0.3470006805505188
H 1.8056963176151863 1.2963225062249237 4.532697406582134 -0.35684655021583844
O 1.9864207969259784 6.6433146690958385 3.869589516271975 0.7586613849882538
H 1.4337837112098724 7.075390380590577 3.1641967496827763 -0.35037753879503253
H 1.9865044820420907 7.308280159213792 4.762813711596252 -0.3553817431285098
O 4.818169185611084 5.998086584889926 2.4747241507467654 0.6984309373149498
H 5.342670001443673 6.1977107161153295 3.222534614888881 -0.3405014912806341
H 3.886145913103959 5.983401292538841 2.879117862561334 -0.3510676319437944
O 1.1578547967284134 4.004571250528757 1.5032211222167982 0.7037571383913968
H 0.9753666064698602 4.543337255149955 2.246103032232503 -0.3565549108249344
H 1.7563936230042099 3.2388481386547454 1.702743113522424 -0.34765344076546323
O 7.602064331673849 1.8971471093958225 3.3354303898812363 0.7001553543752039
H 7.233051648202073 2.73709655790312 3.2402629890198815 -0.3514814903391551
H 0.49921012954524374 2.0064171411610525 2.927545797313621 -0.34829153974300087
O 4.76903231642133 3.912606777602723 5.704348826859786 0.6710602970897082
H 5.133782598810344 4.622437394428766 6.271307266731495 -0.3484024116310188
H 4.23415657852896 3.372528626245029 6.440555160742798 -0.33587457386645225
24

O 4.248005600479313 2.3809713037890043 3.471670389557121 0.7382524071555145
H 4.209553037570738 3.0811809984345078 4.08794982109722 -0.3793950472821286
H 5.217277155587867 2.1623309391655225 3.285384209415717 -0.3505654533984548
O 2.2499732084067796 0.6701539751345443 1.9413964345310573 0.7268279729495395
H 2.817921535500777 1.1533465418067528 2.5014359661458965 -0.36686105610739117
H 2.804158023051392 0.05373115034396487 1.5072793396087918 -0.3618976703716368
O 2.0550482424105785 0.9066387695378394 5.374443346645989 0.6527667626095581
H 1.2610510921788682 1.2143316175008925 5.874427018176298 -0.3464436874107427
H 1.805412123059366 1.297676856182123 4.532767007243952 -0.3565053857226028
O 1.986683418168054 6.644717659934375 3.8693591663035822 0.7562582411315022
H 1.421202612657412 7.0826505217470315 3.152893695421236 -0.34780830848014355
H 1.9865603054048946 7.307720922508737 4.752747582948482 -0.35664682772517653
O 4.817470026464159 5.996630393647797 2.47450338761184 0.6974723665239437
H 5.339576214720749 6.2000349117561235 3.227794087937196 -0.3395211886823907
H 3.894171746956138 5.979031556610696 2.8831112257873923 -0.3514136012023408
O 1.1581791863694069 4.004435405109287 1.5043312796688637 0.7023929534991427
H 0.9841674776911882 4.541698206939267 2.2476624121629882 -0.3560821242123261
H 1.7620203992423722 3.2414645223107144 1.7088842435500715 -0.34684073496994794
O 7.6015806706462765 1.8966453521324975 3.3355749251040407 0.6981946584113847
H 7.2336545490624165 2.747654642815586 3.2444199082456286 -0.3499926499395912
H 0.49996105093139953 2.0151976784429193 2.9261363623709484 -0.34788281033646906
O 4.768485436652004 3.911550882085128 5.703634255896821 0.6741239343652392
H 5.129162258250768 4.605098265008251 6.262972160664943 -0.35089515761783174
H 4.239666428494 3.3793942176471807 6.436297692566389 -0.33753759318666243
24

O 4.246765288395506 2.3805245931192296 3.4711269509649294 0.73793546252924
H 4.212973335970441 3.0881735364366554 4.097272967727519 -0.378950251770642
H 5.222658350418391 2.165295588372157 3.274562802579311 -0.34962215383367623
O 2.2501000417454553 0.6710965025423473 1.9426599990690618 0.7261158203876827
H 2.8218380313961715 1.151616267568556 2.5095248831151005 -0.3668691889600064
H 2.8076862111536975 0.05007978275893456 1.5080867517668743 -0.3614152276944438
O 2.0555930364454427 0.9065479825845281 5.373943949537913 0.6543614988218909
H 1.26268185933435 1.215345471378463 5.876762995965868 -0.3459179474968862
H 1.8055197531253904 1.298971400036021 4.532429908638091 -0.35602604646199054
O 1.9869111316924006 6.646214346556124 3.8691953659005702 0.7537822412257651
H 1.4093018963661939 7.089587018300897 3.1423687873658235 -0.34536185164374966
H 1.9866515158749707 7.305834735176016 4.740711897157127 -0.3582357524249432
O 4.816663236088987 5.9951642504396085 2.47428981045048 0.6964603853498965
H 5.337198499680174 6.2025602757617 3.2336295813233833 -0.33839841532711046
H 3.9030409156666783 5.974679062900109 2.886468897486905 -0.3518952699915565
O 1.1585440013048838 4.0042112929907 1.5053940410680229 0.7010243486559224
H 0.9929245673860913 4.540627868238252 2.2501161834804577 -0.35542948512823225
H 1.767100675941387 3.2448866421861555 1.7149209732570458 -0.34620027748182547
O 7.601188385945591 1.8961048183034521 3.335702447554959 0.6961297375857041
H 7.23358679668612 2.7592334080255485 3.2485349338727305 -0.34824611410495676
H 0.4999632194445007 2.0235837863081745 2.9249916985997424 -0.3476294138296767
O 4.767866498365807 3.910427178342554 5.703032543641536 0.6771368393242978
H 5.124779577787109 4.588080927877166 6.254492900281901 -0.3531827952860348
H 4.246078213532556 3.38705063308565 6.430426874047225 -0.3395661424446229
24

O 4.245602139665868 2.3800091303055426 3.4705135394158586 0.7377051356796844
H 4.216476632371608 3.0958180027513658 4.107246957238247 -0.37834825924354554
H 5.226629706286208 2.1685624968441903 3.264089741669031 -0.3488311636547854
O 2.2501675717314296 0.6720444115231254 1.9439099400750808 0.725319612517846
H 2.826424423146947 1.1505139932892927 2.51833279491594 -0.36679611880131024
H 2.8115504044862107 0.04586589066882912 1.508500444612778 -0.3608279219634952
O 2.0560673222739783 0.9064934808154519 5.37346829978213 0.6563964318915398
H 1.2649855339428075 1.2159182863686553 5.87917016035963 -0.34544602405873526
H 1.8060186057116638 1.3001993358918231 4.531703270874303 -0.35545633293861034
O 1.9870907088196947 6.64780930495073 3.8690745943089198 0.7513496816114855
H 1.3982900223469426 7.096049139338009 3.1328684375144826 -0.3431341711002207
H 1.9867794004047927 7.302699562245752 4.726835447602076 -0.3600978962030582
O 4.815765471785938 5.993690833703338 2.4740911221712265 0.6954123710862021
H 5.335455717298674 6.205251292851359 3.2398794829810713 -0.3371575986390313
H 3.91257311790132 5.970336288826252 2.8892275270067405 -0.3524880565494237
O 1.158951126830101 4.003896008806537 1.5064101830933236 0.6996495357379704
H 1.0016266456993606 4.540165561461474 2.2534860418561378 -0.3545973722553002
H 1.7716165086128497 3.2491210988257135 1.7208205005842387 -0.3457283109243159
O 7.600879419931112 1.895550407998455 3.3358089655143233 0.6939933571839141
H 7.232993574033279 2.7714685094343015 3.2526582713415757 -0.34627135855311864
H 0.4991982774590715 2.031545775580735 2.92412416609946 -0.34753045810630345
O 4.767167098851838 3.9092157528613134 5.702517235573023 0.6799873868900994
H 5.120876689153064 4.571825881079208 6.246183281171392 -0.3552201451884739
H 4.253281777186042 3.395374310033087 6.423049171111018 -0.34188232441903277
24

O 4.244521213088562 2.3794444871574703 3.4698458695943772 0.7375838176432155
H 4.22008236827165 3.1037871593880046 4.117585946727653 -0.37760921265364544
H 5.229090814074419 2.172144901473632 3.253999297689101 -0.34821578585765234
O 2.2501917869628647 0.6729959786915134 1.9451484354146276 0.7244597272504896
H 2.831549809049064 1.1499274821562655 2.5277311069673822 -0.366637029319577
H 2.8156277452274434 0.04122858696931411 1.50861680424848 -0.36014344511999397
O 2.056470934851975 0.9064759590597424 5.373015492745324 0.6587929990682542
H 1.2679657985391304 1.2160501016328051 5.881636837526368 -0.3450498035102618
H 1.8069079475891492 1.301351150847612 4.53061277175665 -0.354817059626105
O 1.9872109540555003 6.649503880435707 3.868974126809229 0.7490563190127104
H 1.38834221215869 7.101913246246912 3.1245935890456087 -0.3412002692436852
H 1.9869457657825047 7.298419324962907 4.7112805411783345 -0.3621724732804441
O 4.814795925176064 5.992213326092135 2.4739152107357447 0.6943414970056567
H 5.334254433041706 6.20806641365046 3.2463630902962737 -0.3358251104883512
H 3.922560591535217 5.965993559631237 2.8914397559113154 -0.35316129880451586
O 1.1594008651010796 4.003489892988454 1.5073827744230082 0.6982716545295791
H 1.0102709139349424 4.540321514410771 2.257752318235971 -0.3535923589920109
H 1.7755665474844928 3.2541522162836 1.7265550044347275 -0.34541985502715566
O 7.600644457595595 1.8950071249823899 3.335891395954155 0.6918244561312259
H 7.232019417193318 2.7839896513535933 3.256835314382468 -0.3441120436432932
H 0.49766835250034197 2.039057945711746 2.9235364045453944 -0.347576916307621
O 4.766379561985917 3.9078971250571732 5.7020577756965665 0.6825492002239859
H 5.117713210429022 4.556794828351678 6.238379766842842 -0.3569451518739509
H 4.26113757968159 3.4042132967818226 6.414313425138119 -0.34440185711686155
24

O 4.243525677548698 2.378849790713237 3.4691393820700283 0.7375758927038565
H 4.223804343122216 3.1117697013165495 4.128014867845799 -0.3767438627748393
H 5.229976675624723 2.1760473946317496 3.2443191419620696 -0.3477949150719568
O 2.2501899487517383 0.6739496670798045 1.946378538218926 0.7235590846619837
H 2.837068675980991 1.14973427529663 2.537573497152163 -0.36639030048742927
H 2.819790368258783 0.03631459162529754 1.50853640510186 -0.35937139195903456
O 2.056804695030644 0.9064956471753696 5.372583620067712 0.6614199867955637
H 1.271611019040018 1.2157480642576417 5.884158665208921 -0.34474137701698093
H 1.808186706721801 1.3024149961568756 4.529191623745765 -0.3541202579636208
O 1.9872625295787094 6.651296103548334 3.868871428358974 0.7469792632497116
H 1.3796031940473477 7.107079168405253 3.1177043391977675 -0.3395858826740742
H 1.9871530874773338 7.293129480713544 4.694248380842049 -0.36439435001534615
O 4.813775826190353 5.990735285717874 2.473769572201783 0.693266643983854
H 5.333494835882223 6.210960323922416 3.2528897401309416 -0.3344373388908667
H 3.932769960542649 5.961638901562417 2.8931743480651018 -0.35388191202102515
O 1.159892020570011 4.00299646099512 1.508317119901111 0.6969015049844269
H 1.0188615555929599 4.541077304672864 2.262854403101829 -0.352421635277696
H 1.7789661857733472 3.259942682078862 1.7321020712054813 -0.34527703674611165
O 7.60047344345582 1.8944989193634274 3.335947634059862 0.6896698609968872
H 7.2308010701625856 2.7964385737788127 3.2611051175538703 -0.3418240037702699
H 0.495395027972637 2.0460989661976736 2.923221786398639 -0.34775549102561765
O 4.76549788777837 3.9064538771061468 5.701620266958301 0.6847136418318764
H 5.11555478887187 4.543447944765878 6.231423541534184 -0.3583137691628556
H 4.269473202977543 3.4133842032766157 6.4044168233483525 -0.34703235435044855
24

O 4.242616952788308 2.378243011853357 3.4684086736811057 0.7377608341632031
H 4.22765079056252 3.119479696843168 4.138279051257177 -0.3758475365936571
H 5.2292554930412445 2.180266832513838 3.2350698554293587 -0.3475836740846844
O 2.2501797538560537 0.674904102723982 1.947603963601261 0.722638404432407
H 2.8428286166705017 1.1498085548547123 2.5477037102139426 -0.3660539437543837
H 2.823910651200819 0.031271556239457265 1.5083593577078327 -0.3585221173289016
O 2.05707045216382 0.9065531028515583 5.37217017280278 0.6641796452403368
H 1.2758944802008054 1.2150262963976561 5.886738756986651 -0.3445306504564277
H 1.80985317964627 1.3033772280906535 4.527479391543353 -0.3533863382199479
O 1.987237733522893 6.653180443603978 3.868743296475682 0.7452441287699474
H 1.3721904010598251 7.111467723990086 3.1123250801457565 -0.3384032537282945
H 1.9874041834970617 7.286991391500544 4.675981929632712 -0.3666870609180347
O 4.812727965873436 5.989260515118653 2.473660768093487 0.692214697445136
H 5.333076143041218 6.213886206622792 3.259267520081286 -0.33304139939488764
H 3.942944274423327 5.9572579094474865 2.8945161618054582 -0.35461578695782014
O 1.160422026516683 4.002422194283941 1.509220531867593 0.6955479588725508
H 1.0274077713468692 4.542388327082393 2.268694096255916 -0.3510952757967155
H 1.7818474785537035 3.266434478069713 1.7374450010554394 -0.34529731342331527
O 7.600355960995245 1.8940478382482007 3.335976568647679 0.6875850935873118
H 7.229462878380002 2.8084823147077578 3.2654997974556585 -0.33947147385325127
H 0.49241826312344794 2.0526521789919547 2.9231648876850267 -0.3480539945806368
O 4.764519257702187 3.90487317173483 5.701168885641766 0.6864110177422214
H 5.114653561989701 4.5322077485566865 6.225630960820201 -0.35931222418511155
H 4.278079138070139 3.422668498620356 6.393612049607018 -0.3496797369770459
24

O 4.241794807733118 2.377640476327659 3.4676671051798915 0.7381280477961238
H 4.231624415152892 3.1266640772039773 4.1481503853886705 -0.3749296162499989
H 5.226926766837964 2.1847932156353815 3.2262645629039866 -0.3475931096777478
O 2.2501785876511273 0.6758580470872644 1.94882885509592 0.7217327669709461
H 2.8486774292140273 1.1500271632004646 2.5579629183029806 -0.36563859283514055
H 2.8278661714194113 0.026242621921751554 1.5081815945958728 -0.35761322772183446
O 2.0572709933804374 0.9066472217517152 5.371771296771029 0.666977921281176
H 1.2807747918523023 1.2139057088878797 5.88938777738342 -0.3444272938598901
H 1.8119046934912606 1.3042230052929482 4.525520641661655 -0.3526443335568935
O 1.9871303137591636 6.655147572094206 3.8685651534597785 0.7438275593521027
H 1.3661971612597477 7.115016953578914 3.1085489418759025 -0.3376213394996903
H 1.9877037074356656 7.280229975252339 4.656785935330706 -0.36895919579135317
O 4.8116760145973 5.98779293269012 2.4735940837864274 0.69120989553876
H 5.332901074339862 6.21679778688576 3.265310854797893 -0.33168442733789627
H 3.952809167576793 5.952833786209484 2.8955640457090093 -0.35532890959026076
O 1.1609870984425297 4.00177621644898 1.510101958078421 0.6941874536291794
H 1.0359215766899166 4.544187839895451 2.2751413025655705 -0.34963067844298246
H 1.7842588435539442 3.2735500485450912 1.7425730432925413 -0.34543899003575806
O 7.600281486167558 1.8936734735521772 3.3359780561678707 0.6856051405317036
H 7.228113815134078 2.8198217874573515 3.270044442154213 -0.33712492684741313
H 0.48879524027335614 2.058705794564828 2.9233419773407503 -0.3484341424676487
O 4.763445655478383 3.9031493703321174 5.7006675482993145 0.6875781515112118
H 5.115225953866312 4.523420524911471 6.221261351205438 -0.35993730752987363
H 4.286705478526318 3.431809750263011 6.382213416114255 -0.3522408451668234
24

O 4.241057399174593 2.3770568138921013 3.4669267950377716 0.7386826495958321
H 4.235722419082965 3.1331016071975486 4.157425824160803 -0.3740314512205264
H 5.223019907677854 2.1896103766946102 3.2179084868964956 -0.3478234201666509
O 2.2502029822109306 0.6768103790186782 1.950057586997934 0.7208752379253562
H 2.854468408498918 1.1502739222262794 2.5681954197154306 -0.36515472275955574
H 2.83154316879668 0.021362549337849826 1.5080923066419418 -0.3566664092281767
O 2.057410112766201 0.9067772765600093 5.37138276070376 0.6697265747741863
H 1.2861965764411372 1.2124136766346456 5.892123852539474 -0.3444425761143384
H 1.8143372890738443 1.3049369453877422 4.523363548945061 -0.3519302682356781
O 1.9869352797498132 6.657184142543489 3.868310409740606 0.742739739622458
H 1.3616951278662632 7.117679635495677 3.1064417578455195 -0.33724218815242935
H 1.9880570141824552 7.273107021121973 4.6370189699440765 -0.37111219840184706
O 4.810643798043863 5.986336462007496 2.4735733828242004 0.6902631286546927
H 5.332879027680123 6.219650946249588 3.270846231230519 -0.33040723949164097
H 3.962081026366629 5.948347523562049 2.896427498240709 -0.35598316858378565
O 1.1615823900624846 4.001069911182522 1.5109715320110446 0.6928740247235377
H 1.044415719122954 4.546391708564314 2.2820408287476783 -0.3480533938057372
H 1.7862645760378149 3.2811934935546545 1.7474815125016212 -0.34572979805734316
O 7.600239532428087 1.8933926830294978 3.335952862314253 0.6838372925940026
H 7.2268462387440024 2.830195987516806 3.274757465222301 -0.3348550708605206
H 0.48459931693944513 2.0642529219238708 2.923721418726932 -0.3489313738131926
O 4.762285384048519 3.9012864444422397 5.700081945550152 0.6883174954518749
H 5.117429512029464 4.5173188437020775 6.218485371349081 -0.36025557104823414
H 4.295061749844274 3.4405140075997243 6.370598753295206 -0.3546972934023007
24

O 4.240401279332825 2.376504877044922 3.4661985833274644 0.7394472310434126
H 4.239937212241419 3.138603872257392 4.165928920676684 -0.3732105249683415
H 5.217593552122186 2.19469649225313 3.20999836150961 -0.3482715927432306
O 2.2502681693635496 0.6777600890099896 1.9512945703100273 0.7200994584897926
H 2.8600647280155522 1.150442957845321 2.578253491827705 -0.3646121716095625
H 2.83483911233448 0.016754365126751984 1.5081718088923872 -0.35571091104199504
O 2.057492534613939 0.9069420435433867 5.370999706172411 0.6723691488883077
H 1.292091455744455 1.2105835627140389 5.894972312227615 -0.3445864949567242
H 1.8171453852442343 1.305503874713138 4.521058424583036 -0.3512787059731436
O 1.9866488057719371 6.65927251605909 3.8679500167781797 0.7419622980916718
H 1.3587354847687951 7.119421763078744 3.1060442093875507 -0.33726075519773957
H 1.9884710667109038 7.26594002351234 4.617104278629383 -0.37305482486833497
O 4.809654481162648 5.984894919088911 2.4736010999361 0.6893871031152383
H 5.332928696378517 6.222405160495792 3.2757170771881565 -0.3292516048396491
H 3.970477206629798 5.943778311071453 2.897221955108058 -0.3565438755465078
O 1.1622021715057012 4.000316452962749 1.51184006672949 0.6915829738393566
H 1.0529017342451708 4.54890401811883 2.289220436294103 -0.34639963878135804
H 1.7879442193492918 3.289252935836634 1.7521721378729647 -0.34610867829970116
O 7.600219690749329 1.8932196216366042 3.335902576834952 0.6822918529253081
H 7.225736773378248 2.839381725721581 3.2796514448529472 -0.3327346971674371
H 0.47991819484787346 2.069291648815407 2.9242645163454957 -0.34948319026667796
O 4.761053839157409 3.8992991780499153 5.699381254884509 0.6885825933608178
H 5.121344976794237 4.513996026952893 6.21736345439892 -0.3602621601919437
H 4.302822618544539 3.448455953954934 6.3592028970195615 -0.35695283330158545
24

O 4.239821367934218 2.375995853837034 3.4654921706234085 0.740418190410459
H 4.244257462944898 3.143013577816349 4.173509339844703 -0.3725092026491075
H 5.210735429034232 2.200024517499683 3.2025217810062547 -0.34892361096261315
O 2.2503877585201124 0.6787063002649508 1.9525441063952165 0.7194324077033989
H 2.8653426800038875 1.1504409453348692 2.5880011521228004 -0.3640241156300502
H 2.837664596911588 0.01252689629640617 1.5084900814496869 -0.35477445600645496
O 2.0575238505926854 0.9071400016090628 5.37061686229402 0.6748580917559188
H 1.2983794108098292 1.2084540666338932 5.897965202032008 -0.3448603449495259
H 1.820321408084536 1.305909607176237 4.518656162751018 -0.3507191390982446
O 1.9862681779609688 6.661390578584497 3.8674522754064466 0.7414673536310505
H 1.3573494761348095 7.120221588012905 3.1073730439572844 -0.3376548860008659
H 1.9889547349444117 7.259103440860254 4.597530158468846 -0.3747182364373308
O 4.808729596936277 5.983471900513607 2.4736784377404706 0.6886008585599896
H 5.332979889175815 6.225024614851815 3.279787382678807 -0.3282603916160115
H 3.977729573671565 5.939104221884317 2.898062083408469 -0.35698380150881526
O 1.1628400201091083 3.9995302877108663 1.5127185339907105 0.6903271402778974
H 1.061388359535623 4.55162279408696 2.296499128743768 -0.3447043970730096
H 1.7893910885406328 3.2976019408524126 1.7566527809729222 -0.34655370289389276
O 7.60021170084771 1.8931657046828385 3.335829534940854 0.6810114313796303
H 7.224846582324372 2.8471941478486857 3.2847338481309607 -0.3308311739924584
H 0.4748528266811456 2.073824986839136 2.92492593569056 -0.35006590427478146
O 4.759773496294959 3.897213149341188 5.698539487556172 0.6884051559025215
H 5.126965840242651 4.5133954817847854 6.2178370576789765 -0.35997757574032785
H 4.309638273143978 3.4552895498115115 6.348504319921287 -0.35895969078736134
24

O 4.2393109103206985 2.3755393400294205 3.464816225848226 0.7415614158432144
H 4.2486688620334006 3.1462032676424814 4.180042361302 -0.3719461945920065
H 5.202562435653917 2.2055625788215076 3.195456451017301 -0.34975698146124556
O 2.2505736194037964 0.6796483469343462 1.9538103452091151 0.71891845154995
H 2.870192446638617 1.150187362575338 2.5973154016594746 -0.36341878672536543
H 2.839944414706578 0.00877327665086681 1.509105953538258 -0.353895500108647
O 2.057510421073236 0.9073693619864905 5.370228701780804 0.677170726325474
H 1.3049706416979223 1.2060683741173737 5.901140476755211 -0.3452624842956118
H 1.8238554654123087 1.3061417277514156 4.516206749062896 -0.3502836392838631
O 1.9857917882823541 6.663512166098536 3.8667835303928184 0.7412269264310372
H 1.357548076203121 7.12006945472242 3.110421257084009 -0.3383936770855829
H 1.9895192622595166 7.253021137851081 4.578838637484024 -0.3760594210504087
O 4.807888084638916 5.982070672772017 2.473805683395266 0.6879214883039022
H 5.33297462449038 6.227479013185242 3.2829440931165736 -0.3274713315461246
H 3.9835985736115256 5.9343031733659375 2.8990543888704816 -0.3572806869073156
O 1.1634890220868508 3.998726600351669 1.513617597898846 0.6891213440162449
H 1.0698803961733223 4.5544454040516795 2.303695123560294 -0.3430040166551025
H 1.7907101622207653 3.3061030646331884 1.760936892301344 -0.34704409137563874
O 7.600205491540332 1.8932397357405726 3.3357367220462564 0.6800392892992737
H 7.224222515341298 2.8534849674796745 3.2900078526039307 -0.32920209049144256
H 0.4695156547284531 2.077860669402115 2.9256544234180195 -0.35066708082120635
O 4.7584727033483025 3.895063031576174 5.697536661913824 0.6878727238232503
H 5.134198376602607 4.5153185378748955 6.21973592686972 -0.35943222391451635
H 4.315153517832991 3.4606670454062467 6.338998805976435 -0.36071415927821193
24

O 4.238861428523225 2.375143464742768 3.4641785506638465 0.7428366153793768
H 4.2531555693136 3.148074423838896 4.185429879348985 -0.37153593920581607
H 5.1932209643589236 2.2112744926367487 3.188769006137642 -0.3507425317247578
O 2.2508358366139087 0.6805857909548505 1.9550971933107022 0.7185176726017868
H 2.8745188079043933 1.1496146903502795 2.606087430241843 -0.36278617563869275
H 2.841617609896508 0.005570590825461099 1.5100670578388098 -0.35307619009121316
O 2.0574592357030346 0.9076280996719087 5.369829611385859 0.6793151493545977
H 1.3117679767901493 1.2034731122560285 5.9045407953914 -0.345793493242888
H 1.8277351052880149 1.3061903358999507 4.5137578876765145 -0.35000780166412526
O 1.9852191899259344 6.6656080677223 3.8659096785640488 0.74122169715866
H 1.3593205011428626 7.118968429031147 3.115156719898806 -0.33944687090176906
H 1.9901788218945513 7.248149541650491 4.561602790325421 -0.3770580674361206
O 4.807145406046035 5.980694066141339 2.4739826057829246 0.6873582529621574
H 5.332867540544403 6.229744071499396 3.2850983029873717 -0.3269114234874364
H 3.9878867578620087 5.929354119523714 2.900289743208178 -0.3574164346556349
O 1.1641419923858385 3.9979207929767564 1.5145472476290238 0.687972638157569
H 1.0783780735369615 4.557273071068974 2.3106326384431686 -0.3413431029079479
H 1.7920151723306423 3.314611693728189 1.7650425976056183 -0.34754348265618507
O 7.600191255151374 1.8934480439454553 3.335627668589253 0.6794017354026616
H 7.223898151148 2.858140792093012 3.295473077210636 -0.32789712073306276
H 0.4640282889174988 2.081410732928735 2.926393778173279 -0.3512660040383575
O 4.757183225398425 3.892889290336677 5.696359875910042 0.6870154284776764
H 5.142871443378504 4.51944763828458 6.222799054428961 -0.3586590876596605
H 4.3190359603893915 3.464266572037729 6.331159337277226 -0.3621554634508156
24

O 4.238462636508356 2.374815029150528 3.463586266400862 0.7441885987222472
H 4.257698827732323 3.1485523629226 4.189592956218201 -0.37129798942308734
H 5.182887381863036 2.2171195591395696 3.182415032232791 -0.35184100078857194
O 2.251182656201859 0.6815184297479415 1.9564082755391257 0.718284061741014
H 2.8782415519757047 1.1486683260228248 2.6142234972246934 -0.36216282327897686
H 2.842637587557464 0.0029794870068817346 1.5114097741512533 -0.35236987602141123
O 2.0573777660573427 0.9079138896706687 5.369414047493476 0.6813104160146255
H 1.3186697421524223 1.2007171272405857 5.908211910341882 -0.34645273083335604
H 1.8319451373724296 1.3060487272776526 4.5113537058172515 -0.3499216930950524
O 1.9845512276930646 6.667647590876902 3.86479843128108 0.7414458655014282
H 1.3626318609367665 7.116935771730095 3.121519827600016 -0.34078683905487095
H 1.990950867880633 7.2449526771245925 4.54639389388679 -0.37771574927548013
O 4.806512659529788 5.979344360572223 2.4742089129204974 0.6869142506333072
H 5.3326260593445785 6.231801864244952 3.286185922424584 -0.3265964771928721
H 3.990452631526242 5.9242385304088625 2.9018354830924817 -0.3573788038842197
O 1.164791714748335 3.997127985656229 1.5155165424209263 0.6868874961942422
H 1.0868768466208898 4.560014325449326 2.3171471108342265 -0.3397723850484845
H 1.7934250398655522 3.3229804333557906 1.7689914966010147 -0.34800929577362716
O 7.600159577170401 1.8937945964574292 3.335506331472198 0.6791054724203225
H 7.2238945646164945 2.861081952527293 3.3011262341643444 -0.3269587769907417
H 0.45851863268165977 2.0844909489294037 2.9270840999232717 -0.35182988899073775
O 4.7559371350005915 3.8907340980252685 5.695004671447214 0.6859352212780814
H 5.152755188732253 4.525382993511843 6.226704448294731 -0.35767581636036294
H 4.321008673368373 3.4658238277470526 6.325388675293819 -0.36330123649339363
24

O 4.238102443301944 2.374559574725625 3.4630459323099028 0.7455897567305416
H 4.26227840836764 3.147586054320304 4.192473569108046 -0.3712502495180583
H 5.171768549677738 2.2230534797038297 3.1763373582208887 -0.35301137401980276
O 2.2516204988077546 0.6824463607193791 1.9577469087540735 0.7182166512640171
H 2.8812952940801733 1.1473060184812813 2.621645135861189 -0.36156153112684086
H 2.842972125206609 0.0010438421465856697 1.5131592376759404 -0.3518056306862226
O 2.0572737064292643 0.9082240613580064 5.368976645164231 0.6831741487909462
H 1.325572905285558 1.197850146387033 5.912200817836148 -0.3472368268101703
H 1.8364675085958202 1.3057140172539379 4.509033500057584 -0.3500463582540211
O 1.9837902588654746 6.669601140992416 3.863422810992832 0.7419153126947216
H 1.3674198546473353 7.114005105421702 3.1294199032436962 -0.34238826862586536
H 1.9918561270261954 7.243860684751275 4.533730553025917 -0.3780542808389479
O 4.805995904968926 5.978023167806816 2.474484613290509 0.686596238752013
H 5.332230591659008 6.233641169407577 3.286168272558085 -0.326538823611247
H 3.9912211567532165 5.918941939737534 2.903729093784566 -0.35716318367277
O 1.1654312039031314 3.9963625173624906 1.5165334256928293 0.6858787399144617
H 1.0953674690400084 4.562587954502297 2.3230896234914535 -0.3383393240304078
H 1.7950597211212462 3.3310639608194315 1.7728071422661662 -0.3484087856418421
O 7.600101617618468 1.8942811084258568 3.3353769576677554 0.6791495445416549
H 7.2242209712087355 2.8622614797305648 3.3069617423829882 -0.3264162002888731
H 0.4531174177675565 2.0871201309702005 2.927663348146657 -0.35233162168957477
O 4.7547634355888 3.888636949499671 5.693475581499878 0.684675202535747
H 5.163583430330534 4.532681185029239 6.231103803663621 -0.3565031112360596
H 4.320880448229636 3.4651609875146403 6.32197464187789 -0.36414002517333977
24

O 4.237767042086955 2.3743814014318496 3.4625636040313967 0.7469766073060615
H 4.266877016978686 3.1451530710093296 4.194045969707581 -0.3713859364257027
H 5.160099302850572 2.229029030100917 3.1704659417679633 -0.354204043839481
O 2.2521540039274868 0.683370044024846 1.9591161106565973 0.7182925110333285
H 2.8836287930766873 1.1454969515145785 2.6282888157832636 -0.360991504067237
H 2.842603233451855 7.999790613710195 1.5153294567122628 -0.3513983214754687
O 2.0571547906932475 0.9085556573170243 5.3685124499195105 0.684915272791119
H 1.3323767446540717 1.194921231461882 5.91655340673294 -0.3481376319088991
H 1.841281241415666 1.3051876645074247 4.506830672896734 -0.3503964218212702
O 1.9829405373650995 6.671443054997228 3.86176504218789 0.742658448651343
H 1.3735895951015327 7.110230146331166 3.1387293479118714 -0.34422121202672396
H 1.99291785122598 7.245220988306103 4.524022936785648 -0.3781070304202143
O 4.805595804408036 5.976731325530701 2.474810236611479 0.686411245540111
H 5.331674595047218 6.235257713593326 3.285032317787344 -0.32674458137803597
H 3.9901893930456462 5.913455373806225 2.905974472681892 -0.3567717554845675
O 1.166054010255315 3.9956374561617665 1.5176046508232734 0.684961700810681
H 1.1038363411793113 4.564925119454535 2.3283301420781264 -0.3370824670701227
H 1.7970350384462142 3.338724668407973 1.7765129896635992 -0.3487208166619864
O 7.6000093421073815 1.8949071330826177 3.335243933066328 0.6795333007770437
H 7.224875125870688 2.861664597853033 3.312972290114262 -0.3262825157891379
H 0.4479541711447805 2.0893192418843887 2.928069173355337 -0.352759908688691
O 4.7536849416962434 3.8866306078596065 5.691785659356109 0.6832894272498662
H 5.175076078307588 4.540892056518634 6.235652132807982 -0.3551763954940337
H 4.318568993364198 3.4622085565002263 6.3210553460449255 -0.36465797160800295
24

O 4.237440952472704 2.3742835725599902 3.4621448894835543 0.7482613067874246
H 4.271476949444949 3.1412533757150625 4.194304967424281 -0.37168133544646365
H 5.148142411461079 2.234996642517122 3.1647173809132227 -0.3553663284201829
O 2.2527860530845896 0.6842903344802386 1.9605185900618507 0.718494856232633
H 2.885204596741958 1.143221139493029 2.6341059436742715 -0.3604692732826653
H 2.8415269574541973 7.999229789090356 1.5179234555454897 -0.3511612589800912
O 2.0570285224050675 0.9089055208805914 5.36801713596626 0.6865322542550472
H 1.3389868479992142 1.1919771129090286 5.92131169555484 -0.34914469225019706
H 1.8463624833133516 1.3044758694236342 4.504771848595429 -0.3509819146101856
O 1.9820086670515558 6.6731541641992305 3.859820008694798 0.743705710728026
H 1.3810080419980149 7.1056889310023115 3.149277366087457 -0.3462482739183885
H 1.9941602840258594 7.249253402596679 4.517524230778374 -0.37790792849985744
O 4.805307623375602 5.9754688131745475 2.4751868743572603 0.6863582627041795
H 5.330964540782403 6.236654368371363 3.2827906189850062 -0.32720758927975857
H 3.987426485590829 5.907776485764322 2.9085413256896175 -0.3562112417323714
O 1.1666544855639602 3.994964156508081 1.5187357948253264 0.6841225383691143
H 1.1122660647595073 4.566970699153957 2.3327596737171845 -0.33601169125470065
H 1.7994570614534375 3.3458384152598653 1.7801300620840343 -0.3489238696980582
O 7.5998757799202314 1.8956701164348286 3.3351116269041094 0.6802462534652276
H 7.2258434367551345 2.8593089510948584 3.319149345327393 -0.3265560231181841
H 0.44315294985403025 2.0911103573336716 2.928240873512913 -0.35310791551908405
O 4.752716301582168 3.8847386854991877 5.689957262621047 0.6818158335319948
H 5.186958219848641 4.549587745525674 6.240031030161893 -0.35372768621011974
H 4.3141169696610175 3.457020221448011 6.322594970400233 -0.3648299938533892
24

O 4.237107333076039 2.37426784040265 3.4617948811749795 0.7493839488306508
H 4.276060222153864 3.135908779151624 4.1932651523853455 -0.3721218959695888
H 5.136181577612956 2.240905665364433 3.1589957394702055 -0.35645373956117654
O 2.2535177853072446 0.6852085075823218 1.961956740032438 0.7188177849012376
H 2.885998758966538 1.1404688972169517 2.639062893861124 -0.36001530931069137
H 2.839753182497211 7.999354347861213 1.5209334117934858 -0.35111039555910395
O 2.056901917818863 0.9092703831644054 5.367487233601561 0.688009580073752
H 1.3453190929940426 1.189060540565602 5.926510872034751 -0.35024786881593006
H 1.8516846691263669 1.3035898296209496 4.502876216183858 -0.3518053786765091
O 1.9810041749856935 6.674723496803876 3.8575977456652546 0.7450737658132243
H 1.3894972082477768 7.100489144540306 3.160842349025348 -0.3484232721623236
H 1.995606408237897 7.256017892258446 4.514298717265218 -0.37747668778671817
O 4.805121591119102 5.9742347000200295 2.4756160333639836 0.6864321661646109
H 5.3301198247132575 6.2378413149235525 3.2794810632542575 -0.32791276583125273
H 3.9830680377245273 5.901910231062295 2.9113677609958333 -0.3554935532287018
O 1.1672281942576923 3.9943518857036864 1.5199313488391528 0.6834204784561471
H 1.120635973892772 4.568683849752679 2.336291091628063 -0.33521459052220226
H 1.8024164786966848 3.3522999550014156 1.78367456973413 -0.3489917967292785
O 7.599695325917097 1.8965654122152185 3.33498422097445 0.6812594784486088
H 7.2271007676656565 2.855245569433213 3.3254836517144746 -0.32722263427448384
H 0.4388276561927312 2.0925155240580198 2.9281215993707335 -0.35336223135738487
O 4.751863840061917 3.882975253857159 5.688020693787165 0.6803222273561196
H 5.19897128496702 4.558377967574774 6.243960006746814 -0.3522162905806605
H 4.307683736735491 3.449764156932286 6.32639524746431 -0.3646510196782681
24

O 4.236748499109552 2.374334498580872 3.461517956995066 0.7503093789248918
H 4.28060959034907 3.1291646925041894 4.190963889472531 -0.3727024984919691
H 5.124513338915531 2.246709474304707 3.153194642819511 -0.3574222483798336
O 2.2543486274947075 0.686126274812753 1.9634326217750373 0.7192212858592313
H 2.886000693244166 1.1372403948748562 2.6431411390260906 -0.3596320187015476
H 2.837305454704061 0.00014019192417613624 1.5243407807047769 -0.35123887346576343
O 2.0567812609699847 0.9096469544271418 5.3669203423852725 0.6893129856318791
H 1.351303295291753 1.1862087636506395 5.932176354815061 -0.3514362249167716
H 1.8572187621531977 1.3025458549778515 4.501155052082662 -0.3528583303369289
O 1.9799400815851216 6.676148943555957 3.855124621123333 0.7467628834529125
H 1.3988279555159526 7.094773267383143 3.173145097778511 -0.35068736008254997
H 1.9972752184440978 7.265398944039736 4.5142098396504675 -0.3768218445867312
O 4.8050235716724385 5.973027129660251 2.476099327667864 0.6866238053467404
H 5.329172607539301 6.238832682669187 3.2751663511757347 -0.3288340870961045
H 3.9773056513868505 5.895869006856475 2.9143656766299277 -0.35463800197246886
O 1.1677721504031504 3.993807496538452 1.5211948198188654 0.6828229139271214
H 1.12892313911362 4.570038332824056 2.3388599329714133 -0.33467926746318877
H 1.805983487736988 3.3580275473700807 1.787155737140703 -0.3489059638187677
O 7.599464078209962 1.8975862575118014 3.3348655239398832 0.6825340452431989
H 7.228609976071084 2.849560432830308 3.3319657646961858 -0.32825548861093545
H 0.4350771489907528 2.0935556013833296 2.927660742097193 -0.3535116572816791
O 4.751126245799071 3.881345397137105 5.686011753060489 0.6787466982247672
H 5.210881591259907 4.566920650050525 6.2472037312176525 -0.3506517292556428
H 4.299524998557587 3.4407027658563565 6.332124855162603 -0.36405840214985163
24

O 4.236346569394416 2.3744821780223537 3.461317463993006 0.7509997907849237
H 4.285109370909699 3.1210918603138027 4.187463688819841 -0.3734033659495132
H 5.113436222581459 2.252360188545737 3.147200299003464 -0.3582332933785213
O 2.255276239522613 0.687045799886 1.9649479670041667 0.7197348987128505
H 2.8852132317892454 1.1335453764475676 2.646337560356984 -0.35935575805751674
H 2.834220809382441 0.0015460873816935073 1.5281164083395027 -0.3515646847824583
O 2.0566718909579627 0.9100320123058281 5.366315313534943 0.6903631803609254
H 1.3568862515920546 1.1834522504036022 5.938321094410968 -0.352695108880306
H 1.8629335593564171 1.3013653470165167 4.499611442274711 -0.354097215664098
O 1.9788334676746664 6.677435721556036 3.85244210472957 0.7487582006760192
H 1.408713474892113 7.088724282299934 3.1858418223523453 -0.35296725666633033
H 1.9991794075734741 7.277124293753061 4.516946754357068 -0.375948332748527
O 4.804995957979033 5.9718433441614645 2.4766380631888274 0.6869281533922282
H 5.328167539674425 6.239653510436339 3.26993318659352 -0.329941891444427
H 3.9703730901398386 5.8896722194672435 2.917428140499709 -0.3536723378785347
O 1.1682850391734634 3.993335192527021 1.522528814867257 0.6823348181649924
H 1.1371036987389103 4.571022839698497 2.3404248277530493 -0.3344177377501174
H 1.8102034957512758 3.3629664681000557 1.7905739426286127 -0.34866116880346054
O 7.5991801704468385 1.8987237190971835 3.334758786955764 0.6840294449234527
H 7.23032126734232 2.8423763554521844 3.338586650051225 -0.32961322812731964
H 0.4319806662436428 2.094249228184792 2.926816214124858 -0.35355695969816114
O 4.750495996875809 3.8798466119233894 5.683969139605328 0.6770935870302048
H 5.222484616890825 4.574925816360076 6.2495737047676725 -0.34903870556365535
H 4.289966026811046 3.430166419715 6.339358288107976 -0.363075028652617
24

O 4.235884376882594 2.3747075907436543 3.4611952482355317 0.7514392192674857
H 4.2895458494231224 3.1117877571067765 4.1828535743349295 -0.37421193382477846
H 5.103236669551282 2.2578144339366713 3.14089674094957 -0.358853408073993
O 2.2562965499856604 0.6879696989955022 1.96650411598139 0.7202925325336951
H 2.883652920364491 1.1294031140175937 2.648664998765258 -0.3591779073842539
H 2.830549465739182 0.003513740749580081 1.5322206971846741 -0.35204499343858375
O 2.056578043892322 0.910422474632958 5.3656723851091375 0.6911597174060362
H 1.3620339617993056 1.1808137375375583 5.944943310129924 -0.3540074744289099
H 1.86879586979278 1.30007445848849 4.498240212046521 -0.35555879632121734
O 1.9777059218130377 6.678594021996398 3.849604577018504 0.7510613331029745
H 1.4188039602667522 7.082570759471835 3.198518702998925 -0.355207771657747
H 2.0013236718995966 7.290797346459888 4.522064522403335 -0.374863802922736
O 4.805018564395667 5.97067973217602 2.477232827751883 0.6873434791807473
H 5.327161471066876 6.240336304799519 3.263891296704438 -0.33120410567248193
H 3.9625324629025487 5.883345518914414 2.920436860240029 -0.3526309469119714
O 1.168767355666275 3.992936400336636 1.5239351130922387 0.681962403281734
H 1.1451520937201334 4.571641074100237 2.3409676775103394 -0.3344342940878341
H 1.8150941499557742 3.367090979322704 1.7939194381246684 -0.34826066593095983
O 7.598844068354002 1.8999666124855092 3.3346665313316532 0.6857032715536013
H 7.232171402842175 2.8338551503103506 3.345338360194913 -0.3312398698934891
H 0.42959389029665523 2.094611972007837 2.9255564695203744 -0.35351153333146523
O 4.749961530884561 3.8784711169838952 5.681931763342694 0.675424696127942
H 5.2336042806976035 4.582152058654668 6.250923919697849 -0.34750307173567596
H 4.279368237072635 3.418520727700184 6.347624139710567 -0.3616760768381363
24

O 4.235346395761557 2.3750052284983303 3.4611510699286923 0.7515598980054206
H 4.293907352300606 3.101378494338263 4.177250180433227 -0.3750380241737483
H 5.094172590297585 2.263035309494168 3.134171845071833 -0.35926037440426317
O 2.257403740333866 0.68890099898451 1.968101972881422 0.7208906613647545
H 2.881350431546699 1.1248424446163758 2.6501529370937327 -0.35911519807509584
H 2.8263544324857017 0.005968059881428252 1.5366038687197656 -0.35266085128975266
O 2.0565027540198852 0.9108154984509117 5.3649932860537355 0.6916148530236723
H 1.366732742780606 1.1783077340964963 5.952024952087048 -0.3553581908147935
H 1.87477138662706 1.2987039438422445 4.497028484685659 -0.3571807210813467
O 1.976583459504864 6.679636067615108 3.84667572691731 0.7535756275768981
H 1.4286885979348185 7.076586779234658 3.2106949082091885 -0.3572611326202131
H 2.003704147919782 7.305943339262292 4.52903790560407 -0.37358573954466157
O 4.80506952138216 5.969531902294653 2.4778831085446837 0.6878642962567907
H 5.326223008340117 6.24092095500046 3.257172056413364 -0.3325779280290575
H 3.954060483534077 5.876919724943047 2.923269600011725 -0.35155633943774256
O 1.169221443292303 3.9926097555615097 1.5254147014637478 0.6817035377247045
H 1.1530425432421665 4.57191171273193 2.3404935842911265 -0.3347257434865635
H 1.8206440093675325 3.370404568713294 1.7971718663547505 -0.3477065564911411
O 7.598458824860975 1.90130134405634 3.334590397489277 0.6875050664839026
H 7.234082494057619 2.8242007428738685 3.352214820854 -0.3330742256541537
H 0.4279460378178259 2.0946557368591714 2.9238620948063607 -0.3533855227644941
O 4.749509245509259 3.877207989307293 5.6799363981126145 0.6737320928611252
H 5.244091719902282 4.588402850255337 6.251146622112499 -0.34606470677705703
H 4.268098792669687 3.406136926077028 6.356448479435099 -0.3598947786532225
24

O 4.234719683157928 2.375367088584447 3.4611819650277784 0.7514129710804589
H 4.2981862827735595 3.090022127595513 4.170803217563353 -0.3759071458325698
H 5.086457271868366 2.2679941201284364 3.1269243038857124 -0.35943910132342316
O 2.2585902400349447 0.6898431137469628 1.9697419631642534 0.7215320410389707
H 2.8783512625804004 1.1199020107631628 2.6508483963045877 -0.35917770488761913
H 2.8217109870347845 0.008817568226220159 1.5412063128415865 -0.35339417705629805
O 2.0564478370000465 0.9112087089992373 5.364281339409486 0.6916954098517261
H 1.3709892995822168 1.1759404652208048 5.959530945058844 -0.3567343605202957
H 1.8808249931536363 1.29728851083924 4.495956205594428 -0.3589324793554627
O 1.9754957848790708 6.680573464210442 3.843724265633889 0.7562870056538167
H 1.437906245665034 7.07108578931977 3.221836080787654 -0.3590818415918682
H 2.0063089256434945 7.322055014354458 4.537314022322592 -0.3721383101250143
O 4.805126196003757 5.968394796784569 2.478586999024954 0.6884818087374407
H 5.325431393807491 6.241454278604163 3.2499259762631647 -0.33401588020967143
H 3.9452350475323974 5.870429467228603 2.9258073109948977 -0.35049373077653634
O 1.1696514215238796 3.9923511975534103 1.5269677686151222 0.6815422695471165
H 1.1607497894483425 4.571868268139537 2.339030580457664 -0.3352736225702083
H 1.8268129950594685 3.372938524853434 1.8003006157390509 -0.3470019550520852
O 7.598030210004142 1.9027118649298564 3.334531022051892 0.6893778586649162
H 7.235961557270609 2.8136600597829875 3.3592127349705128 -0.3350501224049769
H 0.42703823773710464 2.0943886175183217 2.9217268210556004 -0.3531878439344618
O 4.749125063353332 3.876044851074099 5.678015839416973 0.6720458336815662
H 5.253822833537486 4.593521201029776 6.25016689596168 -0.344761810867261
H 4.256507513502259 3.393369292666746 6.365387026124356 -0.35778511174819516
24

O 4.233994845316717 2.3757824265889504 3.461281539119075 0.7510261224668071
H 4.302382946400944 3.077915913139755 4.163707783851076 -0.37680373799903344
H 5.080242989169276 2.272671928388045 3.1190715904628363 -0.35938651602078964
O 2.2598466977314295 0.6907997909973206 1.9714239456591927 0.7222079260090584
H 2.874716479751017 1.1146305085041366 2.6508168760698116 -0.35936882489559585
H 2.8167061963455566 0.011954742291439818 1.54595890295988 -0.35421411665498825
O 2.056413929515957 0.9116002479432841 5.363541404055223 0.6914114736248753
H 1.3748295708425404 1.1737103277581409 5.967409429830954 -0.35812698100192175
H 1.8869213039238684 1.2958661080272742 4.494997084349625 -0.36079190136284
O 1.9744750183263615 6.681415258844557 3.840819598468314 0.7591420808831466
H 1.445964388059787 7.066408040579782 3.231376518965013 -0.36060154786044774
H 2.0091195683305605 7.3386354516697265 4.546358806506047 -0.3705645190072401
O 4.805165973775999 5.96726283034034 2.4793410822790865 0.6891943710827892
H 5.324874704771754 6.241989157322363 3.2423190853997235 -0.33547308051124136
H 3.9363247417159486 5.863911837353246 2.9279395635866754 -0.3494940246650693
O 1.17006300645696 3.9921541669416207 1.5285936615131896 0.6814809313850481
H 1.168249803347977 4.571558851704238 2.3366291962053882 -0.33605728980423377
H 1.8335345248124066 3.374749032969814 1.803265954021189 -0.34616990772882217
O 7.597566757240534 1.9041795950029206 3.334487949391118 0.6912695558220312
H 7.237699947971132 2.802523893938107 3.366332612689738 -0.33709776603262565
H 0.42684340576404367 2.0938152062342748 2.9191578575422126 -0.3529358749384911
O 4.748795191518845 3.874968626931878 5.676197512152553 0.6704242202609629
H 5.262696535596171 4.597385745543797 6.24793865005136 -0.34365095559831393
H 4.244914062722113 3.380542553715159 6.374042198469913 -0.3554196374531309
24

O 4.233166727641864 2.3762375538903284 3.4614393071983622 0.7504353408186637
H 4.306503372663375 3.065292553389987 4.1561957863377925 -0.37769270403249056
H 5.075608669149238 2.27706034105529 3.110557175991962 -0.359109278238555
O 2.261161967243737 0.6917749425282271 1.973147021106658 0.7228997548449754
H 2.870523849069954 1.1090872111917782 2.6501437107508194 -0.3596856605031892
H 2.811437517745419 0.01525751630663773 1.5507840274445253 -0.3550800556485749
O 2.0564005863047075 0.9119887602306769 5.362779708672526 0.6907554071561495
H 1.378296527107022 1.1716087858813902 5.975592966121745 -0.3595024634153099
H 1.893025249065595 1.2944770260041196 4.4941198549083445 -0.3627069806526517
O 1.9735532429638756 6.682167972936909 3.8380274319632304 0.762081701106236
H 1.452376323078523 7.062894514864344 3.238762098114393 -0.3617673839008577
H 2.0121128406222892 7.355224094726717 4.555683905380875 -0.368926101857866
O 4.80516692163031 5.966130051586426 2.4801404882200306 0.6900043540942304
H 5.324647241884026 6.242583201922345 3.234528098942761 -0.33690831807076327
H 3.927581020102998 5.857405140423905 2.929568435105998 -0.34860958407755216
O 1.170463240279894 3.992009886837685 1.5302908258482204 0.6814870205950987
H 1.1755204848983731 4.5710457797675765 2.3333617865198235 -0.33703093525029815
H 1.8407190977776198 3.375913071134194 1.8060208061746374 -0.345223223233626
O 7.597079665651733 1.9056834606057245 3.334459586895009 0.6931370459265505
H 7.239173533518013 2.791125580299917 3.3735798542630135 -0.3391465105689092
H 0.4273076627822841 2.0929372784420646 2.91617548577247 -0.35265707871649776
O 4.748507056507635 3.8739667751503477 5.674503864293182 0.6689469103036787
H 5.270632414733476 4.599906251667853 6.2444402292076395 -0.342807703362929
H 4.233599476495742 3.3679434931875307 6.382073761546369 -0.3528935533155455
24

O 4.232234724517976 2.37671585937207 3.461640302124971 0.7496676401439628
H 4.3105601688319135 3.052418873400008 4.14853471227894 -0.3785430481272869
H 5.072553413620252 2.2811614090527566 3.1013559890245146 -0.35861568112061337
O 2.262523222230333 0.6927724993146068 1.974909602656787 0.7235979663606489
H 2.865868561610662 1.1033422238435382 2.648934976426455 -0.3601265664705694
H 2.806010657750551 0.01859177638012318 1.5555972028211704 -0.3559555879216546
O 2.0564064509206488 0.9123736680983904 5.36200380531903 0.6898059400287286
H 1.3814471683048473 1.169621612043839 5.983997525341316 -0.36085111742126663
H 1.8991026057965579 1.2931629072277209 4.493289818048811 -0.3646446519114467
O 1.972759400544406 6.682836675682386 3.835405295027332 0.765029383487847
H 1.4567083484881642 7.060852872802514 3.2435039068754037 -0.3625471595409917
H 2.015262508711016 7.371409121032483 4.564861441589284 -0.3672917542977072
O 4.8051083836772985 5.964990321950103 2.4809790578642015 0.6909078029524391
H 5.32484639861758 6.2432970844052535 3.226734844369868 -0.3382807384101688
H 3.9192319120048213 5.850947680062325 2.9306114349429424 -0.3478872494290549
O 1.1708601473810905 3.991907723482511 1.5320567113821724 0.6815809773017825
H 1.1825423366964638 4.570404978753843 2.3293215372768885 -0.33817317465659824
H 1.848259016297939 3.3765234799039785 1.8085130650905046 -0.34420273863844886
O 7.596582459000869 1.9072003051326167 3.3344432199176355 0.6949420450835562
H 7.2402452429741775 2.779833485451793 3.380965627977905 -0.3411296085477754
H 0.42835319207064376 2.0917547780657704 2.912811933377655 -0.35238036340017165
O 4.748249489239601 3.8730276121805085 5.6729526427502135 0.6677233465640899
H 5.277569064540535 4.601020299917153 6.239671044869627 -0.3422950001489691
H 4.2228048922877734 3.355819602848071 6.389199309988998 -0.35033066188033646
24

O 4.23120264999724 2.3771979343150194 3.461864892574392 0.7487730158149724
H 4.314575595796029 3.0395971249405735 4.141033101170655 -0.37934367119010715
H 5.070996938085402 2.2849867045387326 3.0914773651747898 -0.3579200477987563
O 2.263916161985934 0.6937962390301065 1.9767089292151925 0.7243047106982716
H 2.8608632938310397 1.097476272753799 2.64731762171167 -0.36068792640868097
H 2.8005367151769653 0.02181483203684349 1.560309278640981 -0.35681785627546114
O 2.0564294103867296 0.9127538081053567 5.361221583465597 0.6886068446290055
H 1.3843489745870903 1.1677303708506472 5.992531272194743 -0.36213796381935426
H 1.9051205323065592 1.2919656403458966 4.492470657195746 -0.36656363355804933
O 1.972116399375855 6.683426585900498 3.832999015810402 0.7679138121786884
H 1.4586237792266994 7.060525443562929 3.2452275073798322 -0.3629250109540626
H 2.0185416693264466 7.386856427670034 4.573541552584054 -0.3657179624329209
O 4.804971425736023 5.963837518547327 2.4818497336570493 0.6918933428121816
H 5.3255683469835144 6.244192174451247 3.2191190976747426 -0.3395511088486183
H 3.9114793469591476 5.844576878248849 2.93100242231512 -0.3473653453487464
O 1.171262359250934 3.991835544744389 1.5338876838380822 0.6817242705031474
H 1.1892990822647416 4.569725444360751 2.32462141221821 -0.33941443099617585
H 1.8560337840176304 3.3766836842861947 1.810688159718344 -0.3431382164888881
O 7.596090471873885 1.9087055338550492 3.3344350876908746 0.6966501899153446
H 7.240769132007631 2.7690395323334416 3.388507396743352 -0.34298975193407755
H 0.42988231498876045 2.090267020340258 2.9091096420829974 -0.35212953776816847
O 4.748012527670425 3.8721401237531716 5.671556941812063 0.66684358252765
H 5.28346299670405 4.6006909317379705 6.23364909066183 -0.34214711316293045
H 4.2127336660002 3.344380533523198 6.39518996207294 -0.34786019209425123
24

O 4.230078225540982 2.3776621821086508 3.4620892328680473 0.7478148543381695
H 4.318581449734862 3.0271562168307757 4.134030773007506 -0.38009075647026846
H 5.070787066915986 2.2885556818172046 3.0809649157508705 -0.3570479967458505
O 2.26532522748768 0.6948495597488156 1.9785410990588839 0.7250077274192672
H 2.8556381207981842 1.0915803225291631 2.6454394047162766 -0.3613542823910355
H 2.7951289361203777 0.024779461544115203 1.5648289953117072 -0.3576443979851436
O 2.0564668487598112 0.9131287465276484 5.360441646522592 0.6873423955099287
H 1.3870761177671285 1.1659138171771732 6.00109492480254 -0.36339998681817987
H 1.9110480290519642 1.290926259692331 4.49162647398003 -0.36843273154451484
O 1.9716382198569338 6.683945404792097 3.830839884297312 0.7705837080963835
H 1.4579276906540397 7.062054790834894 3.2437225543951165 -0.362872988062666
H 2.0219232560988716 7.401284574932476 4.581436736201625 -0.36425082465807246
O 4.804739253669921 5.962665762265388 2.482745063074545 0.6929486001333596
H 5.326902808468344 6.245327609891678 3.211850419610062 -0.3406884363237117
H 3.9044978819344878 5.838328479635689 2.930691716623076 -0.34707337300857355
O 1.1716787286145272 3.991780119540507 1.5357789811343805 0.6819574481792099
H 1.1957781668190526 4.569108286364991 2.3193920939729944 -0.3407647189091052
H 1.863915699217254 3.3765019834080254 1.8124916579345693 -0.34205854555696935
O 7.595620108218026 1.910174167793627 3.3344305342396243 0.6982366964921751
H 7.240597187267792 2.7591410906414553 3.3962287281132206 -0.34468011681626154
H 0.4317824820528353 2.0884740211109247 2.9051190528446167 -0.3519280298140348
O 4.747787269543311 3.8712939375434643 5.670325887506141 0.6663845476072332
H 5.288287956922657 4.598904976427503 6.226409206369825 -0.3423900439239287
H 4.203555243419044 3.3338027481309656 6.399863942554964 -0.34559874874744945
24

O 4.228872261071048 2.378085767340692 3.462286234190114 0.7468404423285675
H 4.322618972221249 3.015438432312504 4.127886879727081 -0.3807689861800254
H 5.0717130289859265 2.2918935820702 3.069893399809451 -0.35603157959456677
O 2.266733897566203 0.695935154282353 1.9804008626115888 0.7256802143731096
H 2.850340100089428 1.085754960775442 2.643468457204072 -0.36210570900533345
H 2.7898983623778553 0.02733947452739363 1.5690664733045459 -0.3584061841962889
O 2.056515833413799 0.9134981442562362 5.359672651720318 0.6861089468482677
H 1.389705707688819 1.1641497525747717 6.009584850017462 -0.36458676124568745
H 1.9168563180357125 1.290083805597254 4.490723783160369 -0.3702258808418315
O 1.9713273012491055 6.684405620783228 3.828942256311931 0.7729016909556048
H 1.4546075452810712 7.0654531334268365 3.2389876170920293 -0.3623651032789237
H 2.0253811336794185 7.414468330835357 4.588320044176087 -0.3629420071684768
O 4.804397663649766 5.96146966724576 2.4836577228589283 0.6940591163628493
H 5.328927351101437 6.246757038695061 3.205079703539928 -0.3416718262411228
H 3.8984332801424806 5.832235917210615 2.929646210163893 -0.3470284425184561
O 1.1721179672765016 3.9917275355483683 1.5377247563579894 0.6822332068200623
H 1.2019712952234427 4.568664475200675 2.313779178568771 -0.342132857809202
H 1.8717752625221 3.3760878516406208 1.8138716884591022 -0.3410057367296321
O 7.59518800935027 1.9115820175053702 3.3344242269212105 0.69969163598642
H 7.239587069016624 2.7505210367893005 3.4041583569801146 -0.3461608016522111
H 0.4339318022180657 2.0863777620047217 2.9008960729854 -0.3518073706731435
O 4.7475656610231844 3.8704791674974746 5.669265043946528 0.6664326935257459
H 5.292034922780892 4.595672341560316 6.218001998072717 -0.34305276951203234
H 4.195408542591424 3.324232255676537 6.403080973613474 -0.34365593055368004
24

O 4.227597659334904 2.3784458381339437 3.4624269969579062 0.7458864509480125
H 4.326737439428756 3.004782167999789 4.1229626180366665 -0.3813601412626435
H 5.073522561066693 2.295029120009289 3.0583630550717826 -0.35490529608221577
O 2.26812520263651 0.6970547497624673 1.9822815897206743 0.7262944483381308
H 2.8451302088024173 1.0801083059175633 2.641589794488723 -0.36292084712747696
H 2.7849489230127884 0.029356247901744844 1.5729372483820359 -0.3590785979571779
O 2.056573319373613 0.9138617570511771 5.358922996466706 0.6850285639544429
H 1.3923141604759888 1.1624163676292654 6.0178967123679765 -0.36568503742192016
H 1.922519171161854 1.2894741235253808 4.489733631459568 -0.3719153857294285
O 1.971174457611446 6.684824999997119 3.8273040396194786 0.774732617454646
H 1.448833796456768 7.070600712178822 3.2312295712724497 -0.3613800709242938
H 2.028890660089998 7.426232828314753 4.59401760514006 -0.36183049978920934
O 4.80393542965244 5.9602445843443785 2.4845810389478835 0.6952062145460753
H 5.331701732018611 6.248525317517291 3.198931290857347 -0.3424874336046182
H 3.893402698131063 5.82632961648746 2.927848891565672 -0.34723564489235004
O 1.1725883331586806 3.9916635979463235 1.539718207820417 0.6825575019862324
H 1.2078741284600956 4.568512486725898 2.3079391161721663 -0.34347667378134106
H 1.8794856235494415 3.3755475802829253 1.8147808081536556 -0.3400257963460085
O 7.594809975120034 1.9129073784457953 3.3344104765715774 0.7010137798395617
H 7.2376135683114535 2.743519748854706 3.412327791217031 -0.34740193591189084
H 0.43620470532531713 2.083983242974366 2.8964994016975836 -0.35179796105208805
O 4.747340209960707 3.8696861748313083 5.668376835977147 0.667070278418046
H 5.294712653818674 4.591026068443806 6.208493425957127 -0.3441503242227377
H 4.18840589138072 3.3157884174413734 6.404736238851079 -0.34213820937963946
24

O 4.226268428747141 2.378721071143339 3.46248273841682 0.7449974570601665
H 4.330991189021693 2.995499620471285 4.119598078194066 -0.3818596475864656
H 5.075940444222975 2.297992257636741 3.046492285001494 -0.35370463859184664
O 2.2694823239857786 0.6982088882157009 1.9841753180432118 0.726830812746821
H 2.840178900782957 1.0747524601486047 2.6400002877316617 -0.36377787289446784
H 2.780372423859712 0.030705647099532864 1.5763664882874497 -0.3596495314415731
O 2.0566363330056374 0.9142194132669449 5.3582005046159225 0.684224773867014
H 1.3949741917104308 1.1606934643918596 6.02592858209792 -0.366694500107695
H 1.928013085012032 1.2891289041249046 4.488633591517986 -0.37347796751758033
O 1.9711613683889855 6.685225265088705 3.825910135917375 0.7759358153141005
H 1.4409199288129573 7.077274272922853 3.2208173374860256 -0.35989543911058575
H 2.0324289194218093 7.436446237927323 4.598400158238068 -0.3609358541525993
O 4.803344616534939 5.958986822580442 2.4855094476375537 0.6963670347100965
H 5.335262753308582 6.2506654471130245 3.193496355463364 -0.34312598984366594
H 3.889493690184023 5.820636532943291 2.925298173222094 -0.34768961169480594
O 1.1730973833022311 3.991574280950259 1.5417518027579011 0.6829362203624114
H 1.2134875139748775 4.568774600484897 2.302033979010521 -0.344764028582106
H 1.88692660899072 3.3749809741352808 1.8151776248663565 -0.3391546268618544
O 7.594499857330064 1.9141327567082793 3.3343836305184325 0.702203414624214
H 7.234580740120246 2.7384069189371454 3.4207677018374127 -0.3483849060395432
H 0.4384773334402559 2.0812992531397887 2.8919879323495996 -0.3519204590504533
O 4.747103698805327 3.868905310220414 5.667660838246715 0.6683414784465034
H 5.296348914200066 4.5850232460342415 6.197965006176694 -0.34566321827433577
H 4.182636190722724 3.308567000176276 6.404755544530687 -0.3411387153817176
24

O 4.224899001413859 2.378893465627717 3.462427055786056 0.7442275485836312
H 4.3354347404836675 2.9878500498341003 4.118083469099546 -0.3822726093496578
H 5.078684245392052 2.3008124958641467 3.0344107228574235 -0.3524688192268258
O 2.27078925790238 0.6993967942656372 1.9860729588445765 0.7272721604530332
H 2.835660149819561 1.0697994876701888 2.6389016517531414 -0.3646534447899572
H 2.7762441650913043 0.031284396948266194 1.5792928595451436 -0.36011415578541695
O 2.0567021226400404 0.9145710110266132 5.357512152808317 0.6838058456928857
H 1.397752360109267 1.1589633977183191 6.033583811904819 -0.36761186275726443
H 1.9333173863431161 1.2890748861627992 4.487409265894017 -0.3749005661576911
O 1.9712632149896585 6.685630578490982 3.824735917337316 0.7764025487743342
H 1.4312804628997011 7.085177471123021 3.2082339720421476 -0.35790887262682214
H 2.0359747761064004 7.44501338382258 4.601375713082624 -0.3602693951208611
O 4.802620855876789 5.9576938499541 2.4864388689315335 0.6975191402061658
H 5.339619739734337 6.253195812053707 3.1888276907920297 -0.3435845490936036
H 3.886765566661835 5.815179567184431 2.922007021131018 -0.34837648206416083
O 1.1736517680913543 3.991446130089611 1.5438175562936527 0.6833571729877495
H 1.2188162288630164 4.569573153365405 2.2962257421594368 -0.34595425324016627
H 1.8939881911484313 3.374478663066934 1.8150280953180156 -0.3384188119190856
O 7.594268556642462 1.915246366421598 3.3343385056817416 0.70326164038177
H 7.230433071634841 2.7353572696611663 3.4295034138537006 -0.34909920287685614
H 0.4406322857656989 2.0783388558656726 2.8874184151468802 -0.35218792528783427
O 4.746848874742857 3.8681266226288806 5.66711400738625 0.6702414612862244
H 5.296992219955181 4.5777465430183275 6.186514457689984 -0.3475459086041017
H 4.178167967044173 3.3026431290596316 6.4030906577097335 -0.3407206594654931
24

O 4.223503702121355 2.3789499661512674 3.46223811833107 0.7436244898668474
H 4.340116886101317 2.982015557192378 4.118631768965446 -0.38259742691359266
H 5.0814788236896105 2.3035174710484494 3.022252079521831 -0.3512397272839879
O 2.2720315956283583 0.7006163551521788 1.9879646782866471 0.7276002845528164
H 2.831743192485756 1.0653558230356244 2.638490670906703 -0.3655255948630115
H 2.7726189530183643 0.031016169889809868 1.5816721984732762 -0.3604669801352508
O 2.0567682871669972 0.9149165203571142 5.35686383927648 0.6838757691417778
H 1.4007069603979347 1.1572118941525802 6.0407735505017 -0.36842697215578957
H 1.938414185084386 1.289333200783789 4.486055602957954 -0.37620199028372625
O 1.9714514875928713 6.686065891473141 3.82375085590752 0.7760788120572908
H 1.4203865456426026 7.093973375677336 3.1940263693475925 -0.35544446981793076
H 2.03950877187161 7.451869221908939 4.602882236934737 -0.35984603830558826
O 4.801763539705921 5.9563644407916305 2.4873669040929127 0.6986465912831459
H 5.344751628648693 6.256118288797416 3.1849371508640276 -0.343868967613276
H 3.8852489949252447 5.809977090985502 2.918002356557408 -0.349276838549868
O 1.1742570912831165 3.991266710780025 1.545907425195754 0.6838071548133875
H 1.2238688366168515 4.571025290548552 2.2906691007538784 -0.34700457161069076
H 1.900573171268235 3.3741201442266084 1.8143063681148526 -0.33784625809500346
O 7.594123249649738 1.9162431582315953 3.334270814754852 0.7041933128780946
H 7.225163967095468 2.7344340176845945 3.4385500883943276 -0.34953858396850657
H 0.442562416599518 2.0751195563878104 2.882843522088403 -0.352612337752749
O 4.746568195821607 3.8673396141843646 5.666730752762587 0.6727593810598189
H 5.296714167363194 4.569306374098544 6.17425674057978 -0.34977584301399844
H 4.175051037739428 3.2980729061294007 6.399716786568326 -0.3409131952902268
24

O 4.222096382988182 2.3788836887386755 3.4619005091673207 0.7432186632105953
H 4.345074494533496 2.9780828289403076 4.1213564522688815 -0.3828217123871954
H 5.084068426263653 2.306131917041973 3.01014747001318 -0.35005503072238064
O 2.2731972627186887 0.7018641622477564 1.989840357093713 0.7278030207710877
H 2.828583928002778 1.0615166039302633 2.6389488841816178 -0.3663772989631189
H 2.7695280671165774 0.02985667180569815 1.5834805110974628 -0.36070369479392106
O 2.0568328752866183 0.9152559886604854 5.356260213613791 0.6844297779576305
H 1.4038863621086826 1.1554286628235928 6.047418932050051 -0.3691348103623734
H 1.9432884803752688 1.2899190572346517 4.48457784664699 -0.37732109342963005
O 1.9716969550331191 6.686555004363476 3.822922173167214 0.7749781109224296
H 1.4087188400412025 7.1033192058866605 3.178751997053951 -0.3525623671314989
H 2.043013112796007 7.456974623176184 4.602882882764106 -0.3596837273572856
O 4.800775891610693 5.954998751450837 2.488292839736301 0.6997403672091775
H 5.350606080499763 6.259417478209521 3.1817960905410856 -0.34399201321371087
H 3.8849458263819416 5.805042483777001 2.9133245190782526 -0.35036772421363294
O 1.174917826575652 3.991025065203998 1.5480137562434273 0.6842884497067017
H 1.2286569784089465 4.573237205988617 2.2855039373817125 -0.34788634838322274
H 1.9065991391273256 3.373972437802986 1.8129952115029833 -0.3374664633608352
O 7.594066934180691 1.9171251659048285 3.3341775406392933 0.7050051223492058
H 7.218819863904458 2.735583420137141 3.447908439223637 -0.3497010802945357
H 0.4441739230369619 2.0716632136194275 2.878310194815288 -0.35320262621724796
O 4.7462535747174295 3.866532987351778 5.666502927616732 0.6757564046764095
H 5.295612218743451 4.559843571098311 6.161325318545722 -0.3522201897222941
H 4.173317429434399 3.2948942927660685 6.394631034032886 -0.3417237362504103
24

O 4.220690283630243 2.378694492683122 3.461406342328224 0.7430249769435255
H 4.350327183937269 2.97603464181767 4.126258701976964 -0.3829233598926305
H 5.086224159697228 2.3086771524314993 2.998220574863965 -0.34894678494190556
O 2.274277188062914 0.7031356838115788 1.9916901812661474 0.7278796487909205
H 2.8263158102836083 1.058359913428732 2.6404314726119407 -0.3671968524159033
H 2.7669778485766825 0.027796740180001278 1.5847156847317871 -0.36082455770303523
O 2.056894473852682 0.9155895249644584 5.35570455168875 0.6855252127367966
H 1.407327887955636 1.1536077887520322 6.053452797084544 -0.3697382992323184
H 1.947927598396339 1.2908412795183564 4.482991652454996 -0.3782808530959767
O 1.9719719894987942 6.687119046150213 3.8222176960813417 0.7731669925740718
H 1.3967305457388224 7.1128935848669395 3.1629370617885986 -0.34936228878477416
H 2.046471692249958 7.460313196759283 4.6013624009104035 -0.3597907243460009
O 4.799664908498682 5.953598318581638 2.4892174613358753 0.7007936801688108
H 5.357100778040627 6.2630611738149975 3.179338734604911 -0.34397083682045004
H 3.8858287137550076 5.800383664987838 2.908026833249904 -0.35162047028049115
O 1.1756372848459486 3.9907121445482465 1.5501297427186034 0.6848095378942762
H 1.233194463041449 4.576298199619238 2.280847946702796 -0.3485876611082884
H 1.9119998560727038 3.374089236392972 1.8110861399934306 -0.33729874872649623
O 7.594098358325032 1.9179011134521786 3.3340572011009884 0.7057005264272265
H 7.211499186088247 2.7386413223120734 3.457561779323174 -0.3495894118730086
H 0.445388487144956 2.0679957320417084 2.8738584156011964 -0.35395930298651157
O 4.745896215845807 3.8656945099380797 5.6664198136336745 0.6791695415368375
H 5.293812500897519 4.54953178951356 6.147873028772452 -0.35484149662859854
H 4.172981503967248 3.2931272114782235 6.38785193800916 -0.3431384682361396
24

O 4.219297937912989 2.378388803242137 3.460755540817404 0.7430631325279304
H 4.355873870841293 2.975752676339099 4.133226427427904 -0.382890136348235
H 5.087748798359458 2.3111708856118716 2.9865839166437897 -0.3479418884391655
O 2.27526588649893 0.7044255889016501 1.9935053666825273 0.7278408509962713
H 2.825040317694947 1.055940962334236 2.643055479584665 -0.3679729768089106
H 2.764950040370388 0.02486312042449531 1.5853977674923303 -0.36083782758036465
O 2.056952266101051 0.9159172786392512 5.355198686470894 0.6871722801417561
H 1.4110570592747589 1.1517479586944712 6.05882110240604 -0.3702482923099045
H 1.95232118629573 1.2921024913359853 4.481322984435836 -0.37907503515569807
O 1.972251723635688 6.687775761918257 3.821607326976627 0.7707501358038744
H 1.3848289170153871 7.122410099768844 3.147055612809347 -0.3459752391889691
H 2.0498701512600346 7.4618890718720134 4.598324628586866 -0.3601642858365488
O 4.798441179714632 5.952165983373311 2.490142706599701 0.7018072440695329
H 5.364126789471946 6.267002008382829 3.1774680301610343 -0.3438253290514022
H 3.887840578775148 5.796002634489018 2.902175250349864 -0.35300777857413324
O 1.176417624555675 3.990321188905476 1.5522498403076828 0.6853690116538527
H 1.237496211707207 4.5802750443629625 2.2767900724227217 -0.34910252977069556
H 1.916726180064774 3.374510460254714 1.808579333326737 -0.3373471002963503
O 7.594212327752674 1.9185853464929894 3.333909964511406 0.7062802525210574
H 7.203346170381063 2.7433505606370954 3.4674749994441614 -0.34921537590613494
H 0.44614453873980764 2.0641465945926707 2.869520409707111 -0.3548700168446286
O 4.745486451320079 3.864810878915395 5.666468026133224 0.6828376342981948
H 5.291473008206829 4.538580370953381 6.134073086168997 -0.35753479538105204
H 4.1740390924508235 3.2927726568162945 6.379420246640402 -0.34511193452023203
24

O 4.217931060543924 2.3779787251783664 3.4599552598633205 0.7433512863035281
H 4.361691932584885 2.977031224530534 4.142045504598968 -0.38271258063901625
H 5.088479347412109 2.3136272776836346 2.9753362203367364 -0.3470650784648025
O 2.2761618112180084 0.7057281353788283 1.9952788439738343 0.7277012967129428
H 2.8248193821974765 1.0542877085908364 2.646890158846475 -0.3686949204349249
H 2.7634038338703215 0.021116739279344585 1.58556771643448 -0.3607516720149804
O 2.057006068576223 0.9162394208127213 5.35474298232434 0.689345117670445
H 1.415087203710875 1.1498525619581688 6.06348395541051 -0.3706680254816902
H 1.9564609182378516 1.293699414062788 4.479607393648889 -0.3796973001468501
O 1.9725147625418717 6.688539066078388 3.8210639489474785 0.7678746850254636
H 1.3733639294483513 7.131625458438858 3.1315165413075574 -0.34254810170857763
H 2.053196049400208 7.461725686730115 4.593791166726233 -0.3608065862808121
O 4.79711865576553 5.950705773616309 2.49107122863691 0.7027880910708004
H 5.371553183465506 6.271179838051229 3.1760627518854583 -0.3435810516058069
H 3.8908936421585105 5.791894985559963 2.89584819185889 -0.3545003822194438
O 1.1772598658557336 3.9898480457869225 1.5543700866930665 0.6859563046999602
H 1.2415771949363068 4.585207266802364 2.273385556528709 -0.34942105766058174
H 1.9207469424983372 3.3752618729814783 1.805483467930638 -0.3376106968229281
O 7.594400314368784 1.9191963049560308 3.3337376136129837 0.7067499497450569
H 7.194540770920202 2.7493857088620883 3.477595583529913 -0.34859894066574093
H 0.4463977349223078 2.060148337935519 2.865320209592977 -0.35591903839796823
O 4.745013776239748 3.8638678321372963 5.666631484324853 0.6865625118928262
H 5.288784988420184 4.52723465550878 6.120118238157115 -0.3601874908211812
H 4.176465754142955 3.2938109287636697 6.369400743062562 -0.3475663197557789
24

O 4.2166004531925765 2.377480615971344 3.4590185674988767 0.74389100955892
H 4.367739139058453 2.9795992091842685 4.152421134578369 -0.3823740793538569
H 5.088286524408903 2.3160572757859383 2.964561441449726 -0.34633799349037253
O 2.276967428613658 0.7070375639105643 1.9970058117302143 0.7274762788764424
H 2.825670782203593 1.0533985641254795 2.651950765644702 -0.36935463419113235
H 2.762279307207875 0.016648789253310703 1.5852848144789309 -0.36056890092829175
O 2.0570563557890704 0.9165561124029932 5.354336355541172 0.6919884926422415
H 1.419419284335345 1.1479296856452408 6.067416400208425 -0.3709953193986141
H 1.96034020973248 1.2956233436246745 4.477888838318822 -0.38014674131191595
O 1.972743164419758 6.689419067284079 3.8205634371486887 0.7647263433982874
H 1.3626284221017793 7.140339127254654 3.116663601731581 -0.33924237887802167
H 2.056439157259017 7.459865666871487 4.587801200358195 -0.3617203038215908
O 4.795714338499469 5.949222744055569 2.4920059137958903 0.7037594235115803
H 5.379232680280681 6.275524746796685 3.1749854190142033 -0.343281035399322
H 3.8948686202257328 5.788049479549916 2.889136323642228 -0.35606616854542483
O 1.1781639107348225 3.989291414979986 1.5564883192037937 0.6865676760473056
H 1.245451473566998 4.591103522839084 2.270652842824939 -0.3495388253784921
H 1.9240495525730295 3.3763548915820305 1.8018153659517573 -0.33809032889063617
O 7.594651258704293 1.9197547812765359 3.3335433762648847 0.707124612699132
H 7.185286141750257 2.756381308866691 3.487856450194589 -0.3477676279070582
H 0.44612081677151344 2.0560359673678175 2.8612735030730163 -0.35709198059333114
O 4.744466912341587 3.8628502904671937 5.666891300647537 0.6901550089187889
H 5.285974784771024 4.5157768073628395 6.106220139931547 -0.36271013367559046
H 4.180214137731747 3.296198954781368 6.357885116771348 -0.3504023938889895
24

O 4.215315842330147 2.376913421477349 3.4579627424986064 0.7446686598163705
H 4.37395772914822 2.9831460005532975 4.164004757012653 -0.3818590521700669
H 5.087073129933806 2.3184690007102913 2.954328468902547 -0.3457761411108843
O 2.277689000492079 0.7083484432809234 1.9986840820563103 0.7271858016423565
H 2.8275671341668986 1.053242547435443 2.6581966799595413 -0.36994642149296575
H 2.7615019229934075 0.011575112780001983 1.5846230590511627 -0.3602917211169464
O 2.0571042737462095 0.9168674564630018 5.353976335372145 0.6950331936482532
H 1.4240419293252413 1.1459920496686478 6.0706089290497935 -0.3712344679383176
H 1.9639539510506336 1.2978607814829017 4.476218176550783 -0.38042762430859267
O 1.972922113781683 6.690422253895631 3.8200842643088744 0.7614622289044599
H 1.352860053958981 7.14838948852817 3.1027807900425475 -0.33618233873437486
H 2.059591854592303 7.4563717885912295 4.580412372986579 -0.36289525995767147
O 4.794247880630195 5.947722780267257 2.492949399940306 0.7047217296258581
H 5.387010889383774 6.279960511878285 3.1740904964887813 -0.34294573741465484
H 3.899614556545378 5.784447759519471 2.8821420419531076 -0.35767248288020337
O 1.1791285637825983 3.988652974576811 1.5586042455920153 0.687208955239311
H 1.2491314592878806 4.597939722983609 2.2685729717298853 -0.34946644035395447
H 1.9266403550300666 3.377786559081425 1.7975995111624812 -0.3387815328400883
O 7.594952428790861 1.9202822243086188 3.3333316632358496 0.7074261644967597
H 7.175795626168048 2.7639594090123416 3.4981800194982684 -0.3467582701797437
H 0.4453029918026928 2.051846340401374 2.857387727865673 -0.35837204278903967
O 4.743834334481662 3.861743042046601 5.667225827052248 0.6934483379585841
H 5.283300071306458 4.504519747153583 6.092603965886384 -0.36503400971865985
H 4.185209439506381 3.299865685700722 6.344997090708568 -0.3535115283258259
24

O 4.214085620673617 2.3762970049310153 3.4568074735797123 0.7456522555987051
H 4.380279874825949 2.987347465154009 4.176422731821002 -0.38114869928519735
H 5.084772590097329 2.3208680974094094 2.9446908338764657 -0.34539094026966954
O 2.27833611825832 0.7096558987459823 2.000314155271414 0.7268544304909583
H 2.8304386433147672 1.0537618584513473 2.665534138366869 -0.3704628259405853
H 2.7609871903197556 0.006030006152273696 1.583667228041782 -0.35992626004839134
O 2.0571516431045094 0.9171734412359186 5.353659152853435 0.6984007488069863
H 1.4289316482097123 1.1440568650692566 6.073067754811325 -0.3713982488582215
H 1.967298262143747 1.300394217911727 4.474651359079207 -0.3805476402118222
O 1.9730394894052428 6.691551703878631 3.8196069450802685 0.7582090526937151
H 1.344253342270014 7.15564889348316 3.0900993242993136 -0.33346140559932036
H 2.062649692471482 7.4513287746154715 4.571702599251965 -0.3643033789510206
O 4.792741128785826 5.946212388445787 2.4939036541775996 0.7056876382313542
H 5.394726897778818 6.284408079605964 3.173232089741377 -0.3426096521437808
H 3.904949613196824 5.78106427004114 2.874978556118216 -0.3592852678611027
O 1.1801515508230336 3.98793735893187 1.5607193524671623 0.687881947467404
H 1.2526274621881324 4.605659248838658 2.2670915962397835 -0.34922436303145366
H 1.9285448001569352 3.379539667243741 1.7928674893742385 -0.3396662139881743
O 7.595290092870634 1.9207995629502554 3.3331078149139213 0.707679792825957
H 7.166283029501583 2.7717488611733225 3.5084819509458955 -0.34561835192090207
H 0.44394897012073065 2.0476175525979587 2.853662362705089 -0.35973526054904514
O 4.743105072800634 3.8605317324835524 5.667610820912193 0.6962900000954884
H 5.281042285916649 4.4937967627696525 6.079500370052331 -0.367099530602763
H 4.191344205989072 3.3047068002222817 6.33089813665898 -0.3567778269490768
24

O 4.212916669931413 2.3756509618557136 3.4555735168810746 0.7468792121600674
H 4.386632879111058 2.9918855507061592 4.189299311454718 -0.3803210309264268
H 5.0813471417455105 2.3232580959732236 2.935686761363643 -0.3451913075064702
O 2.2789210345198208 0.710955727857581 2.001899032111118 0.7265065420592793
H 2.834179221897633 1.0548764976281917 2.673823194251316 -0.37089305493065816
H 2.7606453370254433 0.00015986048334346546 1.5825089273643898 -0.3594793777249473
O 2.057200949218257 0.9174738854562782 5.353379850600927 0.70198911440097
H 1.4340531981125644 1.1421456167836994 6.074814863391063 -0.37149537632857266
H 1.970369871302306 1.3032029260553408 4.473247433952635 -0.38051582560022523
O 1.9730854177971315 6.692807269865561 3.819113437297362 0.7551953030334411
H 1.3369631527591685 7.162018316946447 3.0788049971643505 -0.33126100547648474
H 2.0656120027982907 7.444845556309284 4.561772304319805 -0.36591216991281894
O 4.791217729534693 5.944698504247598 2.4948696039989073 0.7066688097393643
H 5.402222063385486 6.288788814608353 3.172270515770454 -0.342310048803257
H 3.910661300404252 5.777866100554598 2.86776922401222 -0.36086801001515256
O 1.1812295354360582 3.9871519932233936 1.5628366743636237 0.6885780435284572
H 1.2559475420669262 4.614175178863065 2.266123272348453 -0.34883016039036385
H 1.9298073801071836 3.381583071029769 1.7876573343871764 -0.34071897439637044
O 7.595650174449236 1.9213261465422995 3.3328778064400817 0.7079153960877433
H 7.1569537246350015 2.7794027855101318 3.518675261419758 -0.34440276623714927
H 0.4420777245727698 2.0433883610231227 2.8500893681733688 -0.3611553576662174
O 4.742269889443015 3.8592042190954965 5.6680195823893795 0.6985614906703517
H 5.27949414038867 4.483945779769447 6.067134515484754 -0.3688574782265449
H 4.198471779328006 3.31057800557432 6.315794641561545 -0.3600819675380791
24

O 4.211814187515539 2.3749936064103085 3.4542814773273225 0.7483194131767794
H 4.392941136522479 2.996457810777493 4.202265803947148 -0.37938192500318335
H 5.076785963509237 2.3256407673080632 2.9273392568646948 -0.3451869270736265
O 2.2794578432946024 0.7122444432895307 2.0034438255676474 0.726174517698883
H 2.838655082490059 1.0564902960253506 2.682887942769762 -0.37123495790612393
H 2.760385833757371 7.994116512189071 1.5812425119510571 -0.35895872192640377
O 2.057255319103446 0.9177683840098319 5.353132413699932 0.7056789558560794
H 1.4393602022300034 1.140283755370819 6.075887859342232 -0.3715265134994302
H 1.9731671296635065 1.3062642722503712 4.472066154473543 -0.3803441693280094
O 1.9730518417074958 6.694185671709764 3.818586502301865 0.7524814586216841
H 1.331111264920102 7.16742282018015 3.0690453229658097 -0.3295895261761186
H 2.0684827411632045 7.437058789681783 4.550747947206614 -0.3676812693346643
O 4.7897026110399405 5.943188302407276 2.495846959929498 0.7076767187167592
H 5.4093447555954235 6.293027134785919 3.171077136553581 -0.34207931100681543
H 3.9165098242131777 5.774813418812146 2.860645578729421 -0.36239048133316465
O 1.1823581280765028 3.986306828140147 1.5649604740562872 0.6892912773032247
H 1.25909765176439 4.623374033678744 2.265557295401161 -0.34830204487906036
H 1.930491337568963 3.3838721462475667 1.7820127601449889 -0.34191655639590457
O 7.596018735079321 1.9218791124090169 3.332647994872755 0.7081720520671309
H 7.14799719064021 2.786608783805367 3.5286739649448564 -0.34317222293109473
H 0.4397209984044259 2.039197661329833 2.8466537598270314 -0.3626097546371869
O 4.741322904182453 3.8577526218701754 5.668423937643845 0.7001875467403438
H 5.278943038767932 4.475289632306587 6.055713338311161 -0.3702946002944919
H 4.20639962716984 3.31728816220103 6.299944880627739 -0.36331295845565315
24

O 4.2107815687165235 2.374341342234545 3.4529510013844598 0.7499434234311024
H 4.399135856194952 3.0008019483925947 4.214998273290157 -0.37836580737646597
H 5.071103486578351 2.328016303903514 2.9196566005847666 -0.345378530303854
O 2.279961644299798 0.7135192592547615 2.0049552719789996 0.7258871027876008
H 2.843714128552763 1.0584972602590255 2.6925279526532266 -0.37148677138737596
H 2.7601213093359767 7.988051143197746 1.5799613738309157 -0.35837026241613557
O 2.0573184815777728 0.9180562682438635 5.35290992751254 0.709351552053336
H 1.444795863140308 1.1385003368399744 6.076339384122101 -0.37149453357652884
H 1.9756884848202816 1.3095542860017637 4.471166118610307 -0.3800534488226217
O 1.9729320802846544 6.695680498358612 3.8180089941735806 0.7501442128289737
H 1.326791934025142 7.171806781720573 3.060936160440689 -0.3284737896798168
H 2.071271584603074 7.428137226698587 4.538786495881447 -0.36955578170757986
O 4.7882212966350375 5.941688978784172 2.4968341701604024 0.7087181094537445
H 5.415954603953926 6.29705291265133 3.1695383751027184 -0.3419464224583171
H 3.922234613992282 5.771860613821073 2.853744114765604 -0.36382354406433903
O 1.1835318914115853 3.9854139779575193 1.5670958515138733 0.6900243997359026
H 1.262082074026005 4.6331209564906874 2.265264821478876 -0.3476684293753455
H 1.930678106895454 3.3863494119304964 1.775982283466543 -0.34323435748335274
O 7.59638236350171 1.9224729880664375 3.332424891084389 0.7084915650370329
H 7.139583719721526 2.793096259118303 3.53839583241771 -0.3419881834892232
H 0.43692180342597164 2.0350838934125894 2.8433342094892993 -0.3640782012086966
O 4.740263200715578 3.856174610716602 5.668793166912525 0.7011634353214631
H 5.279647355822624 4.468109171790428 6.045409370457977 -0.37142818282925083
H 4.214881669662527 3.3245913650438097 6.283667016950982 -0.3663775544702548
24

O 4.209820348923689 2.3737083704676154 3.451600354431571 0.7517110958261515
H 4.405151859934763 3.0046867866815714 4.227201456463091 -0.37732384511148054
H 5.06433785902845 2.330383841962556 2.9126315221655696 -0.34575972562035817
O 2.280447824000191 0.7147780701437814 2.0064412655380544 0.7256686635606953
H 2.8491943030003575 1.0607871127651325 2.702528709902539 -0.3716451945399327
H 2.7597702854423583 7.982108962103286 1.578754694617525 -0.35772235699569854
O 2.0573947091240323 0.9183365710510403 5.352704755798898 0.7128987409139773
H 1.4502940434756508 1.136827532103759 6.0762361774641676 -0.3714093404082335
H 1.9779330356743354 1.3130488012668933 4.4706026308670594 -0.3796691908795825
O 1.9727205287061487 6.697282148931071 3.81736335937112 0.7482549389029245
H 1.3240754148974652 7.175130959436543 3.054565856022272 -0.32794417402251064
H 2.0739950715659137 7.41828547336642 4.526079296465921 -0.3714673469424278
O 4.786799163837001 5.940207533740011 2.497828481908565 0.7097971020734188
H 5.4219259313054105 6.300803431465017 3.1675585849206067 -0.34193918851341465
H 3.927562710023897 5.768957810214674 2.847202498389247 -0.36513842457203405
O 1.1847443804020794 3.9844872680908456 1.5692483351506084 0.6907808632848094
H 1.2649038914062734 4.643265810392524 2.265106448014923 -0.3469676693928738
H 1.930466074005409 3.388945654033168 1.7696181634635175 -0.3446385028375366
O 7.596728390806589 1.923119707244356 3.332215016468568 0.7089100932531471
H 7.131862648269708 2.7986365841365597 3.5477640526771315 -0.34091038465443024
H 0.43373245290772466 2.031084624807767 2.8401039281169647 -0.3655377016985113
O 4.73909718772459 3.854476378242472 5.669095929029525 0.7015463855801682
H 5.281812023624032 4.462617027657806 6.036346378550466 -0.3722896779506032
H 4.223610795831912 3.332179155021377 6.267346641904286 -0.3692051592556952
24

O 4.208930223061816 2.373106724335372 3.4502463894689748 0.7535952100799224
H 4.410930705688675 3.0079171641365674 4.238619170981215 -0.3763202151314424
H 5.056549859880879 2.3327414823295345 2.906241939796504 -0.3463224606760896
O 2.280931386600067 0.7160193369501159 2.0079102952481462 0.7255242029795952
H 2.854932254814793 1.0632508129467393 2.712672626900456 -0.3717096356097781
H 2.759259280420043 7.976427542993782 1.5777053209170422 -0.3570077599285151
O 2.057488738094754 0.9186080118865871 5.352508747466653 0.7162194298696558
H 1.4557806816884924 1.1352999982238512 6.075657617430924 -0.37128033801450844
H 1.9799002714914762 1.316724405660413 4.470425782447109 -0.37921555102042515
O 1.9724123864606462 6.698977745123088 3.8166311765184626 0.7468514903557584
H 1.3230110296276483 7.177369914238905 3.0499988595012657 -0.32800621385535966
H 2.076677881794108 7.407747671342555 4.512855989520722 -0.37334372137314087
O 4.7854604946838535 5.938750524996838 2.4988261616398844 0.7109173165962095
H 5.427150359874542 6.304224888119039 3.165061861965443 -0.34208230988064314
H 3.93222109726202 5.766053336835261 2.8411543134209083 -0.36631102661338455
O 1.1859882271701816 3.9835415978200457 1.5714234954160646 0.6915588409486182
H 1.2675656924197605 4.653649439995113 2.2649395165404824 -0.3462387274380202
H 1.9299686228662525 3.3915815811020504 1.7629751888419205 -0.3460896363126216
O 7.597045038718308 1.9238286913363267 3.3320247639014595 0.7094323044991822
H 7.124961907797806 2.803042376045924 3.556708491951126 -0.33996868717318773
H 0.43021264741324106 2.02723614097408 2.8369315716142403 -0.3669636960509919
O 4.737839896458525 3.852673758512404 5.669300219456962 0.7014264852591674
H 5.285566989283954 4.458936025390716 6.028589220956184 -0.3729156632467865
H 4.2322175124281065 3.339678876940455 6.251436982331885 -0.371749638263178
24

O 4.2081090746644945 2.372546350630566 3.4489045787157044 0.7555608188806733
H 4.416421068927648 3.010332198758825 4.249033631056659 -0.3754133081372899
H 5.047822080148712 2.3350865634334044 2.900450620380891 -0.3470551313161164
O 2.2814264150884003 0.7172420183591641 2.009370978696869 0.7255417023633695
H 2.8607703344235613 1.0657848704802282 2.722748138490507 -0.37168688637504943
H 2.7585245841626134 7.971129592051685 1.5768878570064797 -0.3563039663801143
O 2.057605661773026 0.9188690401597172 5.3523134894329605 0.719222467259665
H 1.4611755898499188 1.1339541192790519 6.074693711456075 -0.3711100546472741
H 1.9815900398206054 1.320559356432076 4.470678654220916 -0.3787146190018018
O 1.9720034431656068 6.700751033642409 3.8157928047194014 0.7459131529330612
H 1.3236292088953256 7.17851018458672 3.0472782046647504 -0.32861720203870337
H 2.0793542217922614 7.396809869815986 4.499387436650044 -0.3751157684874473
O 4.784227428861136 5.937323807755752 2.499822813846804 0.7120810076003512
H 5.431538619565615 6.307273455739757 3.161992915234339 -0.3423922148054547
H 3.935950815292305 5.763096937455982 2.8357232186458305 -0.36732539322394764
O 1.1872552814330986 3.982592646231117 1.5736266194777957 0.6923553043013131
H 1.2700707406995577 4.6641101203016415 2.264624632620894 -0.3455172549997356
H 1.9293112928435319 3.394170130351238 1.756109274824261 -0.3475506639389212
O 7.5973215595216095 1.924606954525119 3.3318602665588464 0.7101517691683705
H 7.11898766533032 2.8061663994552446 3.565166791106267 -0.3392806179845015
H 0.42642729189802864 2.0235726586991483 2.8337823151751445 -0.36833237712871625
O 4.736515525789007 3.850792672858076 5.669374232043491 0.7009315373804661
H 5.2909520866334026 4.457085872918195 6.022139660299325 -0.37335104586269807
H 4.240276719273027 3.3466602711638505 6.236449879859615 -0.37399125555940593
24

O 4.2073530340746865 2.3720352718885 3.4475891539246053 0.7575455919406313
H 4.421578789825036 3.0118027432642394 4.258263769178722 -0.37464102439550107
H 5.038257909526145 2.3374158915240595 2.895204873141092 -0.3479359299982022
O 2.2819457127764378 0.7184455386259644 2.010831731956115 0.725729625133307
H 2.8665614162134987 1.0682942075830777 2.7325562071045737 -0.3715997487140953
H 2.757512763371174 7.966322980015279 1.5763676267646476 -0.35560429619780765
O 2.0577508017410975 0.9191179421381194 5.3521106064567965 0.721823490500721
H 1.4663945304480308 1.132827147976031 6.073442630582359 -0.3708985777315845
H 1.9830024763300416 1.32453449306014 4.4713957777404465 -0.3781956878977236
O 1.9714899414543208 6.702582422343395 3.81482727968382 0.7454173587430297
H 1.3259423887158641 7.178549271805035 3.046426714286122 -0.32972226534923654
H 2.08206899233207 7.385798502088683 4.485985348208823 -0.3767184799384452
O 4.783118959958648 5.935932281233907 2.5008137057270186 0.7132889358397343
H 5.435021883613693 6.309916102690468 3.1583174726335685 -0.3428783750260177
H 3.938522089118878 5.760042871023369 2.831017375849885 -0.3681721991004959
O 1.1885368169446937 3.981656230113785 1.5758624930300646 0.6931741820958894
H 1.2724229640265823 4.674488499335384 2.264030734971682 -0.3448372927531571
H 1.9286279533138637 3.396619486686971 1.7490758991992077 -0.3489930521669109
O 7.597548340133997 1.925459329477961 3.331727293474481 0.7110512181579354
H 7.114025624385004 2.8078980868462513 3.573084564534264 -0.33884295571031575
H 0.4224441371876901 2.0201263048621914 2.8306190778655718 -0.36963094420660625
O 4.735156855178431 3.8488683165766453 5.66928726884704 0.7002476264658077
H 5.297911806588945 4.456981380348994 6.016939313830323 -0.373650265304487
H 4.247322401756327 3.3526501461257445 6.222938150732418 -0.3759569343864835
24

O 4.206656562074507 2.37157976369401 3.4463132708149495 0.7594895006508735
H 4.426366743504067 3.0122284528249383 4.266162784464551 -0.37404341816689113
H 5.027980125590897 2.3397259583264276 2.8904367478220268 -0.3489360908345879
O 2.2825005324677963 0.7196297397766452 2.012300451376128 0.7260129968413134
H 2.8721726837049824 1.0706942359292215 2.741915639254594 -0.3714302588432833
H 2.756181295457997 7.9620991011894064 1.5761997859739272 -0.354873822542228
O 2.0579295643893887 0.9193525372459935 5.351891851012662 0.7240217060534033
H 1.4713516824137476 1.13195619600616 6.072007626142572 -0.3706520071959115
H 1.984137957149896 1.3286340121313722 4.47260185909487 -0.3776895288537998
O 1.9708685200066811 6.704449052802911 3.81371238365047 0.7452977465710651
H 1.3299447196198286 7.177495586532347 3.0474467949199395 -0.33127466924970106
H 2.0848787087155367 7.37508357224065 4.473004240881189 -0.37810014735910946
O 4.782149795800378 5.934579596277572 2.5017941253646576 0.714538298552506
H 5.437553085841975 6.3121314318179165 3.1540227017050633 -0.3435444006670676
H 3.9397511404308907 5.756853758202809 2.8271234017675546 -0.36884523746329445
O 1.1898237832929461 3.9807477966280578 1.5781352345602708 0.6940232758710105
H 1.2746273497943437 4.684632521371303 2.263039341431024 -0.34424235212155607
H 1.9280563458838313 3.398837074043164 1.7419285710865304 -0.3503828145431229
O 7.5977170334737725 1.9263886140648792 3.3316311344409146 0.7121511022718146
H 7.110141371588514 2.8081619548948664 3.5804160716433686 -0.3386891169061409
H 0.4183312259496989 2.0169265997746515 2.827403902372655 -0.37084715805719204
O 4.733802750130493 3.84694235714762 5.6690115565488295 0.6994882347087963
H 5.3063012725263325 4.458442844444114 6.012879213265483 -0.37386756164521917
H 4.252881252565885 3.3571663556143547 6.211457156727203 -0.37760427707164046
24

O 4.206012576681113 2.3711845478169336 3.4450891862155615 0.7613306475027672
H 4.430756295686816 3.011534537377784 4.272614919014269 -0.37365108172846373
H 5.017129746017868 2.3420132273572776 2.886063340645394 -0.3500218885032621
O 2.2831004969329873 0.720794887649585 2.013784430614211 0.7265081121749717
H 2.8774866778540247 1.072911246861322 2.750664963080742 -0.3712070402543114
H 2.7544984987599035 7.958531920635382 1.576429165153649 -0.35423172055816243
O 2.0581472442765216 0.9195707277114453 5.351649693636728 0.7257685386235437
H 1.4759626374548453 1.1313771105158716 6.070493227802253 -0.37037541072693014
H 1.9849970554306868 1.332846099303079 4.47431073308526 -0.3772105052016169
O 1.970136342555216 6.706325463105683 3.812425450344725 0.7455516807530367
H 1.3356106654502706 7.175369325323642 3.0503187800035976 -0.3332397059678849
H 2.0878509736031687 7.365060049227637 4.460825847334684 -0.3792222443177172
O 4.781329346922589 5.933267883689059 2.502759690499157 0.7158193185549893
H 5.439107968512329 6.313910373165816 3.149117365629403 -0.34438729975872995
H 3.9395150497381635 5.753504144096338 2.824101315148202 -0.3693385131993945
O 1.1911071287184347 3.979881902555312 1.5804481959355954 0.6949072357027002
H 1.2766903802386624 4.694401450702023 2.2615476462038298 -0.3437745427142309
H 1.9277326535611354 3.4007325208721 1.7347172765990149 -0.35168446837459877
O 7.597820663964761 1.9273956973413313 3.331576481272543 0.7134620323322085
H 7.107380708758073 2.8069159040909484 3.587124663364749 -0.33885599278790235
H 0.4141524559414949 2.0140001443107884 2.8240994390645184 -0.37195521784095176
O 4.732494341641181 3.845058784363097 5.668524534964209 0.6988804528659507
H 5.3159017973090075 4.461216071075951 6.0098138443733635 -0.3740325010557439
H 4.2565179582206625 3.3597640146770464 6.202514123852272 -0.3790398855202999
24

O 4.205412574163358 2.370852935106687 3.4439283710221362 0.7630222093654124
H 4.434723232910331 3.0096691073953803 4.277532965006731 -0.37349411692690804
H 5.005864187912727 2.344274370503709 2.8819872322120035 -0.3511572109153054
O 2.283753613229193 0.7219416975019977 2.015290295502486 0.7271726630195006
H 2.882401756625446 1.0748825944510578 2.758663418830314 -0.3709458814029689
H 2.7524431501534004 7.955678347705562 1.5770900491882982 -0.3536660235411705
O 2.0584088294880654 0.9197703411581343 5.351377517977511 0.7270663372804265
H 1.4801477235197094 1.1311231911229553 6.069000933966978 -0.37007255870762423
H 1.9855805051721704 1.3371635764703853 4.47652475114495 -0.37677830613926966
O 1.9692913979063837 6.708184645839806 3.8109447045554856 0.7461345111854418
H 1.342892340955911 7.1722042113163 3.0549975749569924 -0.33555576939010145
H 2.0910623216659667 7.3561318699927165 4.4498432673117865 -0.3800663985183159
O 4.780660997575752 5.931997536606907 2.503706551400162 0.717124465391433
H 5.4396858800231955 6.315256777455996 3.1436317949106285 -0.34539932290790454
H 3.9377624384002927 5.749983427572846 2.8219813748749507 -0.3696531677379601
O 1.1923781796527433 3.9790716960850707 1.5828039256112765 0.6958289778811406
H 1.2786203025222658 4.703669003498147 2.2594704895023967 -0.3434660491297009
H 1.927785256923728 3.402222978458391 1.7274870079947031 -0.352870360376767
O 7.5978537937407555 1.9284796497674768 3.331567295329744 0.7149853181116232
H 7.105769808984042 2.8041499208296177 3.593183247754788 -0.3393580295545301
H 0.4099688789102839 2.0113704409428985 2.820670465181258 -0.3729422791222524
O 4.731271357028313 3.843259956424464 5.667810405778647 0.6985137447052128
H 5.326442674724865 4.464997899083647 6.0075767959780055 -0.3741653175413516
H 4.2578717107597175 3.3600726221400325 6.196528588773632 -0.38025743502800957
24

O 4.20484678982474 2.370586961470818 3.442841598530436 0.7645025297853623
H 4.438249368398275 3.006600723570816 4.280855809935675 -0.3735768778061711
H 4.994355156378476 2.346506502502999 2.8780973270087067 -0.35230450175006034
O 2.2844662574369607 0.7230713502077488 2.016823941734422 0.7279736444418234
H 2.8868323712753496 1.0765565107671005 2.7657919356440783 -0.3706591830040876
H 2.750004214042953 7.9535775711977035 1.57820618625827 -0.35318867167385015
O 2.058718788248005 0.9199492826868159 5.351069971186144 0.7279325961566863
H 1.4838353868209166 1.1312238960549643 6.067624724640814 -0.36974565424943806
H 1.9858891620541668 1.3415843450125227 4.479234374875662 -0.37641267867869055
O 1.9683329615350076 6.7099992862241 3.809250942327224 0.7469925334811125
H 1.3517157896685736 7.168050327995863 3.061407993919944 -0.33814347531933153
H 2.094594656546527 7.3486872456709245 4.44043817684467 -0.38062872757894495
O 4.780141756485086 5.930767076421112 2.5046314557152787 0.7184413232774163
H 5.439310340682893 6.316187906188977 3.137617724511694 -0.34656245122898754
H 3.9345184275011498 5.746297575616851 2.8207632483957847 -0.36979581922215865
O 1.1936290485139307 3.9783284836772177 1.5852041885908355 0.6967916994506911
H 1.2804272204868365 4.712325527373664 2.2567412843042227 -0.3433408388996537
H 1.928328222629593 3.4032379810656948 1.7202765732477365 -0.3539213146002437
O 7.59781267426718 1.929637760943206 3.3316066717182724 0.7167030906838991
H 7.105315119547191 2.799885654188395 3.5985749462187107 -0.34018128327851327
H 0.4058344968143926 2.0090577485318457 2.817085401298982 -0.3738042922319096
O 4.7301657584785906 3.8415799654900775 5.66686450165184 0.6984573703992758
H 5.337625241469061 4.469462821099637 6.005995653427003 -0.37427067218746357
H 4.2567331451910695 3.357875564187586 6.193748124546873 -0.3812583459667801
24

O 4.20430447980759 2.3703874892390595 3.4418389052882716 0.7657043993796624
H 4.441322385703313 3.0023166371963965 4.282546542762151 -0.3738891700747713
H 4.982784390980552 2.3487074636815723 2.87427123445132 -0.35342369151848396
O 2.285243224071853 0.7241855315019341 2.018390550917398 0.7288833990901518
H 2.8907082817203515 1.077891286035985 2.77195235585214 -0.3703589264284639
H 2.7471805572895596 7.952250929247779 1.5797908879441314 -0.35282467279273433
O 2.0590808662016267 0.9201055789007269 5.3507232493104775 0.7283852921555629
H 1.486965445394141 1.131703594249914 6.066446670009794 -0.3693974405840429
H 1.9859239688951904 1.3461116576584702 4.482418115664857 -0.37612302979691437
O 1.9672623006070118 6.711743623940055 3.8073299624197725 0.7480969024911568
H 1.361976306635055 7.162977768238387 3.0694386799436946 -0.3409335754843943
H 2.098528711704083 7.34306689302792 4.432948402885007 -0.38092058678230156
O 4.77976234177726 5.929573118110754 2.5055316754433976 0.7197501754738238
H 5.438029301150575 6.316734796047246 3.1311479060952894 -0.34784930215025767
H 3.929883052900075 5.742469209893357 2.8204175355630605 -0.36977536492009067
O 1.194853026634611 3.9776613514810046 1.5876500028467688 0.6978022677840621
H 1.2821230987136532 4.720279551224876 2.253312285430834 -0.3434227824759365
H 1.9294550507590067 3.40372403421332 1.7131177935051116 -0.3548216500292807
O 7.597695410466609 1.930865520256077 3.331696696718723 0.718587495267927
H 7.106002827602986 2.794176928458779 3.6032939671659117 -0.34130176816879954
H 0.40179408939085726 2.0070789736434347 2.8133177594975276 -0.37453721908669035
O 4.729198806818074 3.8400415579805265 5.6656940470178565 0.6987296575596211
H 5.349145661449473 4.474287093540643 6.0049044549805055 -0.3743326488809212
H 4.253068158686136 3.353133780638793 6.194224106003012 -0.38202776002794125
24

O 4.203774272295092 2.370254255728026 3.440929410955088 0.7665677549905756
H 4.443935887486327 2.996821746692002 4.282591505148477 -0.3744143538517981
H 4.971338048853114 2.3508760754205182 2.8703788054768475 -0.3544748099645961
O 2.2860877897128926 0.7252864754076817 2.019994637695878 0.7298795331737837
H 2.8939736905825124 1.078854525883945 2.7770667059667797 -0.37006388597782003
H 2.743980579277803 7.951701879222857 1.5818471415004207 -0.3526006686539942
O 2.059497903259985 0.9202374117414802 5.350335304539349 0.7284396027695299
H 1.4894920402802851 1.132580398511997 6.06553289418123 -0.3690304328656572
H 1.985685933143078 1.3507542120167992 4.486042917156773 -0.3759112161515793
O 1.9660836044180856 6.713395268048303 3.805175237971494 0.749446387986898
H 1.3735319039652703 7.15708192981385 3.0789334817801626 -0.3438728582728109
H 2.102935841447634 7.339529913923292 4.42763441993939 -0.38096274498111693
O 4.779507673097248 5.92841041302899 2.506404802995273 0.7210273960662665
H 5.435915246413604 6.316942585294034 3.124315649974614 -0.3492295769559529
H 3.9240235410295545 5.738536225636711 2.8208894222878476 -0.369600016923486
O 1.1960449207218153 3.977076817370883 1.59014164659556 0.6988651706973683
H 1.2837216391637416 4.727459339627438 2.249154797420023 -0.34373032277793414
H 1.9312332812182686 3.4036485292898058 1.7060351997415377 -0.3555584742377761
O 7.597502129125613 1.9321565589481149 3.3318382970358633 0.7206083231879523
H 7.107797966374295 2.7871110363469063 3.607346716325892 -0.34269472351754693
H 0.3978813339902289 2.005447642173093 2.80934743881505 -0.3751348970059286
O 4.728379730449996 3.838654757228245 5.664317846640399 0.6992888106163084
H 5.360712202346115 4.479166147570424 6.0041518534771265 -0.37432037743529445
H 4.247021933156841 3.3459910521005862 6.197808837134339 -0.38252361991540385
24

O 4.203244548841537 2.370185890495854 3.4401210457630502 0.7670553519771026
H 4.446089596629487 2.9901379932046446 4.281000043330362 -0.375135972031139
H 4.960200472286694 2.3530123503040743 2.86628642370918 -0.35542190995142187
O 2.2870017505480975 0.726377166275558 2.0216400714716234 0.7309291316472244
H 2.8965868586210073 1.0794226623760024 2.781077452639903 -0.3697941359686381
H 2.7404218281708794 7.9519160206530595 1.5843677292146052 -0.35253024563127144
O 2.0599716832348265 0.9203431306083621 5.3499059351414076 0.7281060299541491
H 1.4913860254385605 1.1338652111672098 6.064930260927159 -0.3686459154516719
H 1.985176133647269 1.3555260484811769 4.490064993557426 -0.37577363243066075
O 1.9648050427759538 6.714936598337675 3.802790430525653 0.751030306263955
H 1.386195409906071 7.150490193986648 3.0896808165177827 -0.3468942209906818
H 2.10786925881745 7.3382258759053975 4.42465063157181 -0.3807783725073709
O 4.779357706557304 5.9272720346395 2.5072484611635812 0.7222494446772265
H 5.433064931839674 6.316870672295684 3.1172340967907664 -0.35066887285787784
H 3.9171614852242835 5.7345491899381145 2.8221039740712306 -0.36928250121760353
O 1.1972013099418959 3.9765785729843324 1.5926786522960095 0.6999796884189329
H 1.2852381073839254 4.733811233078453 2.2442590484384386 -0.34427152472137135
H 1.9337004702924274 3.403002600228499 1.6990462624139562 -0.35612370578800234
O 7.597235139257143 1.9335024959443474 3.332031088280903 0.722727204261598
H 7.110643248193804 2.778810513224712 3.610753080174877 -0.3443235571999401
H 0.3941175598627679 2.004174020469738 2.8051618250130974 -0.37559480412097446
O 4.727705585244899 3.8374167509519332 5.6627654451830125 0.7000376147864253
H 5.372055656386693 4.48382437779653 6.003605010091827 -0.37419136141876563
H 4.238910786015201 3.3367661741928774 6.204165249043655 -0.38268403969926335
24

O 4.202703908937091 2.3701799001221797 3.4394201357741845 0.7671457172426179
H 4.447789812281633 2.9823044360076514 4.277805230303628 -0.3760288871090609
H 4.9495464498715585 2.355117660259538 2.8618627615570627 -0.3562347879287924
O 2.287985460484959 0.7274609868371611 2.02333009738546 0.7320113453731982
H 2.8985195101001118 1.0795804460383631 2.7839462983790577 -0.3695653852373313
H 2.7365306365033346 7.952861162917148 1.587335370842942 -0.3526375322541697
O 2.060502844186692 0.9204212730272413 5.3494368729435475 0.7273919821157391
H 1.4926365555758323 1.1355610171102042 6.064664096475497 -0.3682430675930196
H 1.9843957540923134 1.3604461899803961 4.49443106862166 -0.3757057098252019
O 1.9634397961620165 6.716355453572695 3.800191331670399 0.7528146593359184
H 1.3997261684303968 7.1433693392845505 3.1014021974327823 -0.3499078820493019
H 2.1133561329695114 7.339178039116754 4.424026470265262 -0.38038959993077204
O 4.779288546777889 5.926149606453144 2.508060010673307 0.7233948730240494
H 5.4295980510201405 6.316592281206006 3.110034580078663 -0.3521274096966108
H 3.909555689297878 5.730568016127977 2.8239724714689625 -0.36884340629351
O 1.1983206910283313 3.9761673269895637 1.595259782364437 0.7011432467302028
H 1.2866901570423888 4.7393062191248525 2.238633769727204 -0.3450439399404338
H 1.9368619172112573 3.4018026155465 1.6921621081108364 -0.3565174287936266
O 7.5968990638977365 1.9348928091543915 3.332273235640273 0.7248922052077511
H 7.114457719253892 2.7694352266178024 3.6135478350643147 -0.34612897980075286
H 0.3905110873223584 2.003265308083497 2.8007565177338796 -0.375923577495783
O 4.7271648880138395 3.836315663659042 5.6610724157076735 0.7008617847104495
H 5.382937253186858 4.488022078285186 6.003152040039382 -0.3739113331333621
H 4.229156617137465 3.3258856258087115 6.212839279655424 -0.3824468866581464
24

O 4.202141671329347 2.370232620452198 3.4388308656073336 0.7668235431076578
H 4.449050163817045 2.9733779754365175 4.273065596490568 -0.37705499214298377
H 4.939532598759405 2.357194821431737 2.856985655965352 -0.3568876190716561
O 2.2890378632810306 0.7285418896790571 2.0250673446304646 0.7329863584447429
H 2.8997565422521205 1.0793205894764788 2.7856541576521776 -0.3693759719762001
H 2.7323417848785114 7.954487703999396 1.5907227475626349 -0.3528340848132372
O 2.061090831307778 0.9204706088639376 5.348931718267076 0.7262989257410146
H 1.4932517423371665 1.1376624659122172 6.064737136580388 -0.36781918705694083
H 1.9833461314107956 1.3655379993805985 4.499079996766847 -0.375700412053077
O 1.9620069248027976 6.717644831245366 3.797406908060211 0.7547610086056302
H 1.4138216830433454 7.135933523303671 3.113740345290033 -0.3528233579795742
H 2.1193922444055717 7.342279412627245 4.425661752787101 -0.37981608226717856
O 4.779273636386228 5.925033601247152 2.508836336043653 0.724443301266249
H 5.425654732221555 6.31619335689758 3.1028640217160626 -0.3535621880475045
H 3.9014863522862377 5.726658298065258 2.8263983575953193 -0.3683082799665468
O 1.199403494655966 3.975840764287177 1.5978829912112735 0.7023491539299331
H 1.2880973234886077 4.743937928763924 2.2323057632153436 -0.3460333311786127
H 1.9406903799089392 3.400090111710701 1.685388635501907 -0.3567469300537941
O 7.596500965506095 1.936314608178121 3.3325613154342157 0.7270443077786539
H 7.119134734173084 2.759185766113062 3.6157825157146997 -0.3480393732106529
H 0.38705721528133197 2.0027258796966967 2.796135654599906 -0.37613326605420305
O 4.726740398388393 3.8353334710102507 5.659277135104577 0.7015697114158272
H 5.393151584825696 4.491557230647471 6.002701878426674 -0.373462989001734
H 4.218239687340342 3.313836534782216 6.223311256601968 -0.38167824541588213
24

O 4.201548336958431 2.370339121671692 3.4383546412203723 0.7660866249027891
H 4.44989273171832 2.9634348957458974 4.266868117237911 -0.3781706329734603
H 4.930288929958021 2.359248041010449 2.8515493253372597 -0.35735976309842366
O 2.290156498484282 0.7296243599296411 2.0268538240335783 0.7339622362275846
H 2.900295953226689 1.0786435308589601 2.7862010764130347 -0.36927084684550515
H 2.7278980139573283 7.956728532239224 1.594493074604424 -0.3532140754313401
O 2.0617339141750177 0.920490204213103 5.348395801781123 0.7248157921593779
H 1.4932582910184486 1.1401558135178582 6.06512983617901 -0.36737122654524823
H 1.9820288488386788 1.3708282806848937 4.503944743872569 -0.3757394037816164
O 1.9605319442579316 6.718801568744249 3.7944792978639046 0.7568403246388462
H 1.4281100935530695 7.128452234270271 3.1262479223677633 -0.3555643994460823
H 2.125940442917938 7.3473064898662 4.429337773970782 -0.37907885335348745
O 4.779284905493014 5.923913669441303 2.50957375546052 0.7253773103795933
H 5.421391762648383 6.31577069744313 3.095881280172463 -0.3549332915292508
H 3.8932409436587605 5.72288802328263 2.8292822983518895 -0.36770348709610845
O 1.2004519725710392 3.975593615297339 1.6005453782020416 0.7035902194253012
H 1.2894807666681452 4.747723274630235 2.225319317854258 -0.34722395874941714
H 1.9451278238505045 3.3979301650568345 1.6787279056420805 -0.3568202706475152
O 7.596050360899201 1.9377525082920817 3.332890237755361 0.7291504849503556
H 7.124540950022598 2.748305197491183 3.617526784497705 -0.35001518449917846
H 0.38373890064165966 2.0025575788687484 2.7913117996152508 -0.37622995666863923
O 4.726411855933284 3.834448873192516 5.6574177910268935 0.7021338668500645
H 5.402527427868056 4.494265213993123 6.0021834373482035 -0.37284094056786066
H 4.206654433271213 3.3011210702236014 6.235043675214476 -0.38042056830081816
24

O 4.200915958408729 2.3704931082706717 3.437989453915022 0.7649958162085759
H 4.4503493508249345 2.952572683373212 4.259331487770861 -0.379371284756314
H 4.921911633778223 2.3612827673419643 2.8454712310818895 -0.35763562330367293
O 2.291337518054861 0.7307133893784419 2.0286908799064935 0.7348283882884623
H 2.900149333185983 1.0775576294723073 2.785606702055919 -0.3692489903610886
H 2.7232492855251444 7.959499977263183 1.5986003948366392 -0.3536846631129682
O 2.062429261512676 0.9204794978142291 5.3478359465456755 0.722957938461189
H 1.4927002106678882 1.1430192231180398 6.06580194970395 -0.3669055892476535
H 1.9804458965615004 1.3763460822421056 4.508954889078551 -0.3758159771755205
O 1.959046802930571 6.719824451038498 3.7914625859355913 0.7590487557244947
H 1.4421513191704407 7.1212545553031825 3.1383827072634807 -0.358087350356891
H 2.132933158609715 7.353944911039116 4.434741312361144 -0.378203637761108
O 4.779293970506077 5.922779009398117 2.5102680007950045 0.7261855523862515
H 5.416974547309383 6.315429420474015 3.0892526320297 -0.3562051338948109
H 3.885099844460023 5.7193241499612295 2.8325269692799466 -0.3670580346033747
O 1.2014699698851243 3.975417821775932 1.6032431451497613 0.7048818784570194
H 1.2908635083224314 4.750702760569618 2.217735369422525 -0.34861592217210324
H 1.9500890418504149 3.3954084091056758 1.6721796301309608 -0.35675152201514027
O 7.5955591991880205 1.9391884964218 3.333253190445543 0.7311022166332515
H 7.130515561467817 2.737080637610259 3.618869726703236 -0.35193617336278615
H 0.38052811133565795 2.0027600876493805 2.7863053730856118 -0.37622567227510006
O 4.726158733201062 3.8336401707656 5.655529761137887 0.7024554790379574
H 5.4109251399442195 4.496015225476775 6.001543028238104 -0.3720651254272853
H 4.194868352330471 3.2882141313366087 6.247525817038958 -0.37864532537138484
24

O 4.200238392225226 2.370686803255529 3.4377292563394555 0.7635560373370609
H 4.450463044082483 2.9409119877028687 4.2506099351478435 -0.38056754107007307
H 4.914457543252332 2.363305477502814 2.8386981657469277 -0.35770848013599355
O 2.2925756586160366 0.7318144047253864 2.030579140837775 0.7356018278997143
H 2.8993425017951857 1.0760793926445664 2.783910879039131 -0.36932758139626776
H 2.7184527516941586 7.962702011312709 1.6029896892455797 -0.3542457541201167
O 2.063173061568834 0.9204383989032644 5.34726013682663 0.7206793233781221
H 1.4916366949736772 1.146223367831134 6.066695234389565 -0.36639375889933545
H 1.978599888483739 1.382121189757828 4.514039409778877 -0.3758871305617182
O 1.9575888796080387 6.720712418414477 3.7884201283553116 0.761280142350178
H 1.4554410103508861 7.114724704445808 3.1495178947769564 -0.360256026571515
H 2.140278328816253 7.361822368380467 4.441496534926866 -0.3772236484652275
O 4.779273266658622 5.921618786279652 2.510914383726088 0.7268500753254266
H 5.412576473948197 6.315279024084247 3.0831454644662464 -0.3573310049055818
H 3.877325375994916 5.7160298192613 2.8360406585666196 -0.366406026851841
O 1.2024626086786037 3.975302794601363 1.6059715722473593 0.7061540723315329
H 1.2922704426670917 4.7529403021365235 2.2096305799194145 -0.3501193627415915
H 1.9554667473555207 3.392626893907033 1.6657426081331073 -0.35655988424808915
O 7.595041725649334 1.9406018994934624 3.3336416524476418 0.7328864318771886
H 7.136870121089323 2.7258436227364666 3.6199208469656665 -0.35377794800256146
H 0.3773877397801995 2.0033313494269622 2.7811436595690124 -0.37613179970137156
O 4.725961732663435 3.832886850593404 5.653644206410866 0.7024747440805121
H 5.418234936141624 4.4967077323712585 6.00074253989567 -0.3711716286166573
H 4.183299886061874 3.275540639017594 6.260297634822382 -0.37637507829174766
24

O 4.199511383845106 2.3709107908784905 3.4375633539633266 0.7618627143987744
H 4.450290500882555 2.9285999104253295 4.2408984758167 -0.3817564500476367
H 4.907940644878053 2.3653233662860007 2.8312110304785367 -0.3575748626379076
O 2.2938642389647548 0.7329331382173316 2.032518414068797 0.7362696175132553
H 2.897916508040409 1.0742339644163568 2.7811745688757283 -0.3695134267373129
H 2.7135716436089354 7.966219880658879 1.6075978158356983 -0.35486288661322996
O 2.063960689105083 0.9203673432067382 5.346677144261602 0.7180254650541507
H 1.4901392805489442 1.149732417804252 6.067736961003573 -0.3658425949779973
H 1.9764943038824383 1.3881824183920106 4.5191296757164485 -0.37594953672486464
O 1.9561991739404037 6.721463196945557 3.785420877665758 0.7635223934570967
H 1.4674338514956056 7.109288763570023 3.1589657113514766 -0.3620543087942828
H 2.1478675509177396 7.37054291570106 4.449199154906938 -0.37617069608062725
O 4.779197049934732 5.92042256873222 2.5115081199111104 0.7273677949930086
H 5.408367240633618 6.315428326165069 3.0777207624037466 -0.3582801099095386
H 3.87015450087399 5.713062528338758 2.8397396224050886 -0.3657812803444558
O 1.203435900860948 3.9752357389702824 1.6087250144089678 0.7074267296471364
H 1.2937283267755637 4.754523366354039 2.2010959082865633 -0.35173022542784327
H 1.9611375666408775 3.389699314635902 1.6594159727696218 -0.3562675750850828
O 7.594514104566244 1.941969723649606 3.3340455649442404 0.7344553193702241
H 7.1433924357454455 2.7149640011624503 3.6208085646321466 -0.355476081469173
H 0.3742740946129519 2.004268001821421 2.7758593355251935 -0.37596581990729727
O 4.725803587472953 3.8321704512628525 5.651787419186972 0.7021784040262893
H 5.424375021024713 4.496271868653731 5.999757544628309 -0.370203405539952
H 4.172307300230408 3.2634640826907892 6.272961840817783 -0.37367917816273
24

O 4.198732474690992 2.3711539403788353 3.437476026970531 0.7599766982759126
H 4.449903673206071 2.9158115383668157 4.23043647209002 -0.3828929630972806
H 4.902331794476925 2.3673439816281734 2.823027209438848 -0.3572388710342195
O 2.2951951777117086 0.7340754501385346 2.0345075435893776 0.73683391661221
H 2.895928724498556 1.0720556781151784 2.7774808495550416 -0.3698134572300573
H 2.7086739928781367 7.969926303067195 1.6123547353271126 -0.35550540563065847
O 2.0647868826530535 0.9202673706356018 5.346096081416005 0.7150283503250274
H 1.4882885958040084 1.1535049782822835 6.068844601772359 -0.3652447859631287
H 1.974133813234668 1.3945557052223327 4.5241624102538704 -0.3759836589339193
O 1.9549189920001093 6.7220733624574756 3.782534006554188 0.7657473761522549
H 1.4775876977506543 7.105382913449328 3.1660312075470585 -0.3634590843852977
H 2.155584876836593 7.379717292233501 4.457447477934536 -0.37508937077373794
O 4.779042322328539 5.9191807726236 2.512044708841064 0.727736692537813
H 5.404503865263343 6.315979910332996 3.0731252559555715 -0.3590251565238529
H 3.863793153406446 5.710472578364944 2.843549849385682 -0.36521558839041046
O 1.2043963443068888 3.9752020038897813 1.6114969189698514 0.7086861083874911
H 1.2952658111900464 4.755562389764686 2.1922354671934166 -0.3534048702611454
H 1.9669685265320438 3.386745859508818 1.6532001534397385 -0.3559029815328215
O 7.593993824377182 1.9432672992448339 3.334453653238356 0.7357709955803207
H 7.149853184828249 2.7048398635635924 3.621676869666771 -0.3569729905827238
H 0.371139647581913 2.0055657537873075 2.770488741881508 -0.3757485988273609
O 4.7256693452947935 3.831474885338503 5.6499807714683925 0.7016149048921194
H 5.429289078061885 4.49466233511839 5.998575457283476 -0.369218068891798
H 4.162186587718515 3.2522843334872347 6.2851864531884605 -0.3706791907047644
24

O 4.197900685450869 2.3714032993017353 3.4374462866513116 0.7579660378318369
H 4.449391851246735 2.9027518104392263 4.219511653993995 -0.3839365614369149
H 4.897561599646561 2.369374827025759 2.814200247055245 -0.3567138314432009
O 2.2965590270130973 0.7352470922048798 2.036544233373272 0.7373067756324554
H 2.8934541749253904 1.0695888049489164 2.772936131382229 -0.37023099634130796
H 2.703830930100384 7.973684535332967 1.6171851440868599 -0.3561494603111486
O 2.065645935835299 0.9201401645351366 5.34552594873799 0.7117335024226754
H 1.486170953683178 1.1574957885824027 6.069929247496208 -0.36459246048869554
H 1.9715246298475435 1.4012621532548575 4.529082577756256 -0.3759643449146157
O 1.9537865473400797 6.722539505099648 3.779823854979464 0.7679315758042953
H 1.4854106042882125 7.103416674868182 3.170073199199757 -0.36446806125771614
H 2.163313635454969 7.38898204639173 4.465862666114665 -0.374030204532672
O 4.778789595356667 5.917885084774244 2.5125203748783007 0.727953943082134
H 5.401121548574886 6.317024241180927 3.069483524245393 -0.35954240036528173
H 3.858413298221484 5.708302210832151 2.847407918175975 -0.36473664790306337
O 1.2053505270712623 3.975185511748837 1.6142799208505145 0.7099144471550525
H 1.2969133469763148 4.756189082264958 2.1831643328323547 -0.35509463195049795
H 1.9728234055935474 3.3838881902392064 1.647097494644985 -0.3554955864912154
O 7.59349889894659 1.9444692453902244 3.33485390472228 0.7368157834347488
H 7.156015568609851 2.695880871463657 3.622679759025323 -0.35823557756027247
H 0.3679359268447659 2.0072197419008337 2.765069940469261 -0.3754967995224989
O 4.725546081565523 3.8307861755452555 5.648241230233931 0.7008545665464663
H 5.432945011021902 4.49185760951167 5.997194116567195 -0.36827657452500306
H 4.1531773278707345 3.24224367486896 6.296698177648276 -0.3675124928655622
24

O 4.197016064822903 2.371644135910872 3.437448002033014 0.7559091618734937
H 4.448862822201039 2.8896548221959337 4.208460556579933 -0.38486379083371514
H 4.893526169327893 2.3714229981772696 2.8048168187329487 -0.35601965818623227
O 2.29794499662176 0.7364534205213724 2.0386248243683496 0.7376906669055938
H 2.8905872698523347 1.0668883261309519 2.7676716238507773 -0.3707646665414178
H 2.6991147344877406 7.977352270732962 1.622010612830074 -0.3567642267642581
O 2.0665318900244625 0.9199880133704852 5.344975167124273 0.7082092994555025
H 1.4838749858161284 1.1616567369077835 6.070900803173838 -0.36387885393485697
H 1.968674885806286 1.4083161591389772 4.533846010749744 -0.37587198061585514
O 1.9528322049165228 6.722860837410119 3.7773431920594343 0.7700150645905885
H 1.4905298325442238 7.103716570826918 3.1705939176215754 -0.365066292851452
H 2.1709426674874566 7.398016418471458 4.474105459236126 -0.3730369113803479
O 4.77842350290604 5.9165288778135325 2.5129325816055323 0.7280189685916463
H 5.398324218591244 6.31863327632674 3.0668898564009486 -0.35981625627645264
H 3.854152745034142 5.7065853889313045 2.851260943192843 -0.36436615235935876
O 1.2063047889803709 3.975169208983693 1.6170660286754839 0.7110963546834412
H 1.2987029659541627 4.756553544984542 2.1740056120078544 -0.3567545720616514
H 1.9785684122238205 3.3812444254845326 1.6411129901761659 -0.3550736792297199
O 7.593046870502508 1.9455507850922362 3.335234212052299 0.7375861250924165
H 7.161648307536439 2.6884874726802512 3.623973052671027 -0.35924624279383466
H 0.36461639875872126 2.009224905932478 2.759640657829792 -0.375225793779554
O 4.725422529540592 3.830092116220419 5.646581904344801 0.6999576971639394
H 5.435333808562656 4.487858314075088 5.995620744952674 -0.36743068280430613
H 4.1454697351118055 3.2335340571194475 6.30727486166162 -0.36430357794364676
24

O 4.1960791562307795 2.371860088791008 3.4374503315631655 0.7538937438578581
H 4.448443686507383 2.8767826987756044 4.197668480383012 -0.38565684465180683
H 4.890095002699038 2.3734948936723943 2.794991415211988 -0.3551833216327238
O 2.299341060321502 0.7376990963965635 2.0407441193667246 0.7379761988087734
H 2.8874425975395557 1.0640203849031242 2.7618436037954783 -0.37140354757052685
H 2.694596595095661 7.980783995169124 1.6267520211534388 -0.35731840921435765
O 2.0674386812252137 0.9198142090353488 5.344451424868431 0.7045651366382695
H 1.4814884996242492 1.1659383429939225 6.071671727756644 -0.3630998895623886
H 1.9655949957573546 1.4157236613075928 4.538421278848525 -0.37569597559486057
O 1.9520739945969996 6.723042420581303 3.7751269462448382 0.7719080999105208
H 1.492758580270688 7.106467678062469 3.1673301882026794 -0.365252192397735
H 2.1783710927300324 7.406542471860509 4.481881273041086 -0.3721382821305337
O 4.777933317204534 5.915107575626717 2.513280433306218 0.7279314736405349
H 5.39617687680708 6.320854895017564 3.065401696751557 -0.3598397317808206
H 3.851114681574114 5.70534753796621 2.8550667242807912 -0.36411712005293473
O 1.2072649478473847 3.9751357035283506 1.6198468612822732 0.7122233803344604
H 1.3006678772166398 4.756819985295737 2.164886679985729 -0.3583465955182541
H 1.9840768924170873 3.3789265489281664 1.6352533968311767 -0.3546658059130561
O 7.5926535240566055 1.9464895943820462 3.335583253985785 0.7380821288570696
H 7.1665434113397035 2.683021139931297 3.6257024089712164 -0.3599887802836015
H 0.36113922036413787 2.0115763014314734 2.7542362074539892 -0.37495317942202244
O 4.725288663578702 3.8293818288072803 5.6450125239321 0.6989785884716557
H 5.436468877651428 4.482686063594271 5.993871144033996 -0.3667209982603731
H 4.1392114404538844 3.2263040835649086 6.316738213965534 -0.36117807653311473
24

O 4.195090601780227 2.3720336686135752 3.437418764754729 0.7519559267123412
H 4.448276788537998 2.8644117451940825 4.18755016693648 -0.3863053422820182
H 4.887119554711651 2.375596000576625 2.7848598104146745 -0.35423518300927026
O 2.300734134581984 0.7389877342553831 2.0428952111234646 0.7381503657916375
H 2.884155161536667 1.0610623487738453 2.755633308808018 -0.3721305264813155
H 2.690343842646915 7.983841012159185 1.631332684640681 -0.35778776672934964
O 2.068360332458069 0.9196223036183714 5.343960929860516 0.700866188014136
H 1.479095692012045 1.1702910805632782 6.072160546494653 -0.36225404526220706
H 1.9622979853221634 1.4234808161291674 4.54279114841261 -0.37542639301914205
O 1.9515163782078024 6.723096533352416 3.7731903346568294 0.7735398843227028
H 1.4921136812601117 7.11169253240261 3.160282775186935 -0.36500743211690057
H 2.1855094510287163 7.414336691883865 4.488947544752367 -0.3713490620513413
O 4.777313244901028 5.91361890973802 2.513564934508416 0.7276873498895629
H 5.394700757444979 6.323708861542132 3.0650354891779417 -0.3596107971551248
H 3.8493678510463307 5.704605465665457 2.8587937380058497 -0.3639931920662519
O 1.2082360658617795 3.975067538954767 1.6226139147036867 0.7132891680269371
H 1.3028419270523302 4.757161472835547 2.155935003133629 -0.3598340580253918
H 1.9892335156334955 3.377036510877928 1.629527336950053 -0.35430129656881837
O 7.59233160445565 1.9472677164250398 3.33589143420161 0.7383031932276767
H 7.170534152683523 2.6797737588235444 3.627990355346095 -0.360444879788811
H 0.3574696463320986 2.0142692894216725 2.748887556571606 -0.37469773932084494
O 4.725135415645672 3.8286457676894314 5.643540452454006 0.6980442099431812
H 5.436385799092415 4.476382713531436 5.991969180868788 -0.36617691289387466
H 4.134513851043246 3.220665567923496 6.324946986765422 -0.35828165915753163
24

O 4.19405090429784 2.3721470939026132 3.4373167785491945 0.7501665664251052
H 4.4485178240164975 2.852831476229446 4.1785497857203175 -0.3868035615782859
H 4.884442294866055 2.3777307442095763 2.7745714011484215 -0.3532210535137923
O 2.3021102428723843 0.7403215174915824 2.0450692807420405 0.7381987595799515
H 2.8808807416322435 1.0581027154923945 2.7492464714520515 -0.3729218663308822
H 2.68641707545896 7.986395467189727 1.6356816827739227 -0.35815918548151693
O 2.069291067855162 0.9194162885895262 5.3435083396792376 0.6972325568090902
H 1.4767749793220188 1.1746663123933583 6.072294817280296 -0.36134484793333055
H 1.958799768801282 1.4315730703503857 4.54695304501636 -0.37505857341791105
O 1.9511505141751868 6.723043013512206 3.771528975758338 0.7747675603354098
H 1.4888104225821737 7.119248275290962 3.1497160566186118 -0.3642877673651398
H 2.192280788899358 7.4212245239761225 4.4951103154914644 -0.3706804172361473
O 4.776562475624888 5.912063035449143 2.5137890716993123 0.7272803325184962
H 5.393871956016588 6.327184871188275 3.065765465012305 -0.359131347584574
H 3.8489472112654055 5.704367427200409 2.8624210091721682 -0.3639907789324356
O 1.209222294936587 3.9749479510633803 1.6253589067049596 0.71430905667648
H 1.305258816133514 4.757752926447785 2.1472730644881604 -0.36120812747974673
H 1.9939375739180558 3.3756636611449267 1.6239449815566158 -0.3540039093507438
O 7.592089698120717 1.9478732959087097 3.3361517667896976 0.7382515503885234
H 7.173510891152204 2.6789400104134797 3.6309239022799358 -0.36060277763598136
H 0.353581842257075 2.017299661489088 2.7436197388824834 -0.374474010542053
O 4.7249540440647575 3.8278745532566125 5.6421699587661 0.6972730668242055
H 5.435142494449393 4.4690100335271765 5.989946647456701 -0.36581709351583336
H 4.13145850459369 3.2167000941718995 6.3317900073036455 -0.35577413165889227
24

O 4.192960324122951 2.372183246524899 3.4371077635616865 0.7485846821803386
H 4.449325011272652 2.8423168443516222 4.171099221764477 -0.38715982069836474
H 4.88190545762552 2.3799024168464693 2.7642811558798095 -0.3521868767235097
O 2.303454874393105 0.7417009338315884 2.047255652151249 0.738104164657353
H 2.877793083428759 1.0552393150474553 2.7429090168384325 -0.3737545276782964
H 2.6828674059121878 7.9883365494181 1.6397372145330091 -0.35842137483204184
O 2.0702253694206254 0.9192010413824151 5.343096930416683 0.6937550258482856
H 1.4745972122912434 1.1790176691000698 6.07201239116604 -0.3603769913328685
H 1.9551193085255982 1.4399747355671308 4.550918746461014 -0.37458782334411567
O 1.9509556717425658 6.72290886588676 3.7701206581624525 0.7754932661838505
H 1.4832404955448226 7.12883790615343 3.1361360260653077 -0.36306808836088855
H 2.1986208296671212 7.427067294153479 4.500214674784197 -0.37013846545692763
O 4.775684991003344 5.910442495595058 2.5139576990697328 0.7267019180659731
H 5.393623711889383 6.33124293062564 3.0675255427461776 -0.3584095858530202
H 3.8498547521274142 5.704633285542363 2.865937994087099 -0.36409647365593234
O 1.2102267876602009 3.9747615264430074 1.628074167552156 0.715220950326092
H 1.307951196117119 4.758762529860464 2.1390125124389554 -0.3623855101027572
H 1.9981054417195507 3.374882800579537 1.6185174834119642 -0.3537945192696419
O 7.591931462209877 1.9483018455176635 3.3363605723629295 0.737930463904116
H 7.175432092878674 2.680597172566841 3.634544729250272 -0.36045802450118825
H 0.3494600565279073 2.020663747057638 2.738450662306474 -0.37428963005488813
O 4.7247360847041495 3.8270595097986777 5.640903709956851 0.6966491200293095
H 5.432819597897547 4.460649537934388 5.987843210475827 -0.3656460871178502
H 4.130101077473086 3.2144634106025634 6.337181844559167 -0.35366579221298045
24

O 4.191819142043515 2.3721270511612 3.436757671103828 0.7472550386026293
H 4.450848584493286 2.8331111142137875 4.1655910894109605 -0.38738656632012713
H 4.879358731255523 2.3821131930674375 2.7541419761431887 -0.351174254171032
O 2.3047534161145293 0.7431246024238405 2.049441989626074 0.7378486502964292
H 2.875079548205462 1.052576747768423 2.7368611236771216 -0.3746074445984515
H 2.679734134841346 7.989576074279222 1.643449595086712 -0.35856514471648115
O 2.071158094690161 0.9189818123708731 5.342728298202513 0.6905121015855245
H 1.4726242398176925 1.1833015354614353 6.071264008401061 -0.35935664132873457
H 1.9512786580570647 1.4486491267997088 4.554713308308302 -0.37401322218106514
O 1.9509042688858098 6.7227246199899415 3.7689320552345564 0.775633712715321
H 1.4758925647883578 7.14007325993562 3.1201874519843957 -0.3613219456723491
H 2.2044768826849395 7.4317646337389025 4.504144154253389 -0.3697288994451743
O 4.7746891630140755 5.908762039942048 2.51407723957855 0.7259477588212251
H 5.393852030925684 6.335816007039357 3.070214078612623 -0.3574598785718409
H 3.852060324737758 5.705394693289552 2.8693445421223958 -0.3642930278669335
O 1.2112516530277218 3.9744948630475503 1.6307530271875512 0.7160538734162698
H 1.3109492714641076 4.760342765307357 2.1312490302394944 -0.3633805170366703
H 2.0016722700137537 3.3747528884073894 1.6132564013939772 -0.3536876583517703
O 7.591855357252786 1.9485567806567003 3.3365178502413024 0.7373620024901069
H 7.176328141131729 2.6846964890249825 3.638843961329971 -0.3600039793861174
H 0.3450991327626939 2.0243584892365405 2.733390371504926 -0.3741727708250081
O 4.724473009886 3.826192140876583 5.639742480675024 0.6962748512480434
H 5.429521168864129 4.451402592852659 5.9857066956122 -0.3656735470793331
H 4.13047466907062 3.213988369199442 6.341059432225691 -0.3520624916244257
24

O 4.190628136386641 2.371966879719531 3.4362377444351466 0.7462163822580234
H 4.453216817577121 2.825402772443111 4.162340898106271 -0.38749917988808547
H 4.876665347967469 2.3843642111229535 2.744298107157561 -0.3502230199317986
O 2.305991693560614 0.7445892453638797 2.051614704230815 0.737417647965025
H 2.872934304775129 1.0502224448954574 2.7313483234749483 -0.37546019309978684
H 2.677043062500846 7.990052990423786 1.6467836538047678 -0.35858681953639315
O 2.072084532509297 0.9187642709218347 5.342402480590341 0.6875796060750701
H 1.4709078862301304 1.1874779293180255 6.070013974583004 -0.3582965421189154
H 1.9473028911829122 1.4575492485973325 4.558373311163936 -0.3733416407486946
O 1.9509656998226739 6.722521542311835 3.7679240085520203 0.775155176702907
H 1.4672925281254405 7.152523986116974 3.1025755299261424 -0.3590632461008796
H 2.2098070659912303 7.435247415264559 4.506814438204207 -0.369453235636896
O 4.773587194414847 5.907028322316063 2.514155240722859 0.7250189935740345
H 5.394423886884339 6.340814597958512 3.073700827295938 -0.3563037438931337
H 3.855502376542232 5.7066353040149895 2.872650955867709 -0.3645593683595384
O 1.2122979672028789 3.974137191637332 1.6333901662485115 0.7168078682583987
H 1.3142796070913025 4.762621213617432 2.1240571419321177 -0.3641817991265758
H 2.0045932410892227 3.3753160899613595 1.608173084201448 -0.35369492893082033
O 7.591854941822239 1.9486490977340605 3.336627250689774 0.7364820289242056
H 7.176296907520078 2.6910682735320868 3.643762769256109 -0.35923014208843895
H 0.34050413288598685 2.028381538898224 2.7284410425411867 -0.37406842463825674
O 4.7241560628567285 3.8252640252394765 5.638685336551288 0.6960996887618494
H 5.425375667790362 4.441390475756482 5.983593233379694 -0.36580586615247657
H 4.132591748151849 3.215287181758383 6.343380015422018 -0.35100924226883223
24

O 4.189389178527787 2.3716957365606124 3.4355269420768737 0.7454971605994793
H 4.456522457667748 2.8193067220911114 4.161553961678615 -0.38750362750970935
H 4.873706236001462 2.38665569938016 2.7348801230750457 -0.34937304536702807
O 2.307156656460637 0.7460898188650937 2.0537596051513476 0.7368042594711721
H 2.871548630497621 1.048281224872199 2.7266093008527177 -0.3762926785728702
H 2.6748053605245388 7.9897368522651115 1.6497205522383767 -0.35848952909571363
O 2.073000458999734 0.9185543517278958 5.342118040934235 0.6850199075202086
H 1.469489246378318 1.1915110422907895 6.068240898206338 -0.3572139218381447
H 1.9432198877639657 1.466618988748253 4.561944499022933 -0.372581442329727
O 1.9511094031097966 6.722329328881684 3.767055909312906 0.7740783839949184
H 1.4579559127398933 7.165758783807554 3.0840010461323533 -0.3563466242249146
H 2.2145792448364707 7.437473837340326 4.508169074517915 -0.36931398156402717
O 4.7723944709559865 5.9052495174924395 2.5141998483075296 0.7239209269008662
H 5.395186811511458 6.346132526528442 3.0778351264412107 -0.35496738412012097
H 3.860088656316932 5.7083310432772905 2.8758781412097756 -0.36487171734670465
O 1.2133658035810038 3.973680916083575 1.635981891380761 0.7174727632582028
H 1.3179638717436208 4.765692524510696 2.117486442083932 -0.36477332892623415
H 2.0068443480852967 3.376597226801907 1.6032780523909798 -0.35382242529245067
O 7.591919660210139 1.948596259363284 3.336695662737402 0.7353139839764937
H 7.1754921899064055 2.6994395152499657 3.6491984952169556 -0.3581233790406837
H 0.3356897977652235 2.0327309960901356 2.7235969937400104 -0.3740115611076025
O 4.723776201839957 3.824266783235408 5.637729648222842 0.6961379602328992
H 5.4205356920201115 4.4307540610771206 5.981567733320832 -0.36604841229249974
H 4.13644511359499 3.2183524330052067 6.344120368080687 -0.3505122873257729
24

O 4.188105740520529 2.3713120004357235 3.434613696116217 0.7451165979365633
H 4.460811713679256 2.8148524128751498 4.163301722674249 -0.38740272998059055
H 4.870382951799666 2.388987154360225 2.726000858755744 -0.3486573854208549
O 2.3082370231808285 0.7476197626477716 2.0558626221236693 0.7360205875506376
H 2.871100953122946 1.0468498513628102 2.722863709969094 -0.37709319255352003
H 2.67301735505885 7.9886294460109335 1.652258572041038 -0.35828310224227167
O 2.07390218102132 0.9183581173475825 5.341872213194774 0.6828699489110948
H 1.468398256757138 1.1953696807761933 6.06593798136283 -0.3561244575532273
H 1.9390600042311283 1.4757947228328472 4.565479034736045 -0.37173746790997164
O 1.9513073276889659 6.722174112487862 3.7662893153995407 0.7724807231366224
H 1.448349525873383 7.1793803106047065 3.0651063931456943 -0.3532660907270109
H 2.2187703259528986 7.438426198966279 4.50817621225057 -0.3693192429188954
O 4.77112895051533 5.903434945875354 2.514219321296425 0.7226647172783776
H 5.39597771862202 6.351652519033424 3.082453444893573 -0.35348141559612223
H 3.8656970852251287 5.710450490626237 2.8790577677140607 -0.3652058305756639
O 1.2144542686297275 3.9731220787981996 1.6385263405700057 0.7180415817802377
H 1.3220176454174821 4.769611505396953 2.111558965992369 -0.3651483975816383
H 2.00842294426975 3.3786034232120126 1.5985803879579352 -0.3540702831279009
O 7.592035943736257 1.9484205667093561 3.3367325256471907 0.733853917867213
H 7.174107507547537 2.7094600452652724 3.6550149017614646 -0.35668699193731324
H 0.33067891082166617 2.0374053596269674 2.7188457082560995 -0.3739928644513195
O 4.723324144750004 3.8231921444059003 5.636871053778146 0.6963250906705558
H 5.41517747392709 4.419652548051742 5.9797034299868566 -0.36635348647249655
H 4.142007576919062 3.223156790723857 6.343277517036514 -0.35055022608244646
24

O 4.186783190071352 2.3708195594624777 3.4334966725012013 0.7450755765805448
H 4.466078016495477 2.811981538268895 4.16751257441348 -0.38719384273792656
H 4.866619227931459 2.391357559897213 2.7177526893902 -0.34809506819190283
O 2.3092240154597747 0.7491714500790134 2.05791076075661 0.7350918419631824
H 2.871744488020396 1.046010475960632 2.720297469376867 -0.37785622029948474
H 2.6716612820970638 7.986764356614156 1.6544127705169664 -0.35797771191872974
O 2.0747865724432986 0.9181816138022024 5.34166107719878 0.6811686043536653
H 1.467653508662915 1.1990275849896594 6.063113008783872 -0.3550424016125123
H 1.9348556513800017 1.485007210640998 4.569032634726549 -0.3708377857181928
O 1.9515349315112196 6.72207765108504 3.765589573350639 0.7704874182637651
H 1.4388761634857299 7.193040662626495 3.0464523273388484 -0.3499551172468921
H 2.222365731197286 7.438108304816063 4.506826091194945 -0.3694761747249189
O 4.7698105164947435 5.901594665214453 2.5142215413146793 0.7212937119594882
H 5.396631830144529 6.357252172762587 3.0873871306861362 -0.3518926642395388
H 3.8721770698944242 5.712955417248795 2.882232331156286 -0.3655516592582495
O 1.2155615402307756 3.972460646376186 1.6410235686296764 0.7185150715088602
H 1.3264494566658132 4.774388738823318 2.1062684322653276 -0.36531387318112707
H 2.0093480558017096 3.3813240125823683 1.5940871493326947 -0.35443248461121035
O 7.5921884758389275 1.9481472497579615 3.3367489563193224 0.7321020069623398
H 7.172357911532023 2.720732974347288 3.661054726467282 -0.3549407337345035
H 0.32550043559690583 2.042403361517097 2.7141690846294817 -0.37399049529006223
O 4.722790479838231 3.822032089716674 5.636103314293473 0.6965619079385259
H 5.409500484802744 4.408262511040606 5.978081845153126 -0.3666570384086534
H 4.14923053165553 3.2296515627292557 6.340870911114971 -0.3510828683564592
24

O 4.185428761514558 2.3702272808676073 3.4321843679998403 0.745357803903486
H 4.472262052672522 2.810556075584009 4.173979626771818 -0.3868668782602065
H 4.862361356061882 2.3937656387882584 2.7102060591484003 -0.3476954883363804
O 2.3101120405906834 0.75073674822031 2.0598930986806026 0.7340484174285695
H 2.873594818801586 1.0458242998312934 2.7190484617818518 -0.37857618117767866
H 2.670706908442947 7.984204526182304 1.6562135518184344 -0.3575813496554133
O 2.075651102489419 0.9180307227387741 5.341479739422583 0.6798671114465884
H 1.4672622497573438 1.2024636491934246 6.059788096612586 -0.35398219599582537
H 1.9306409766030201 1.494183410839601 4.572661754436671 -0.36984002418579087
O 1.9517716054466014 6.722056949740497 3.7649266217518167 0.7682553447519895
H 1.429868180448152 7.206449113823537 3.0285067318112797 -0.3465721113602579
H 2.2253591699755524 7.436543796307575 4.504129582934495 -0.3697900761479167
O 4.768460342083833 5.899739084622095 2.514213583073497 0.7197799756018222
H 5.396990737919902 6.362809614897805 3.09246949221525 -0.3502154650274638
H 3.8793513613088293 5.7158014808476905 2.8854550350356845 -0.3658595443045005
O 1.2166849042411736 3.9717005702481827 1.6434754994987524 0.718892755616876
H 1.3312601519576799 4.779989358372718 2.1015815093744905 -0.36528032030745095
H 2.0096604613591103 3.384730699217175 1.589802830200022 -0.3548990745519255
O 7.592361436258352 1.9478025701416248 3.3367568286375597 0.7300712697737912
H 7.170462543724397 2.732844875097543 3.6671525423432585 -0.3529107608415263
H 0.3201873673784435 2.047723763256327 2.7095450314487244 -0.3739891754515947
O 4.722166085810325 3.8207792828504283 5.635418194898789 0.6967400515706506
H 5.403723603180879 4.396773998133906 5.976791013887047 -0.36690222206341394
H 4.158041251083144 3.2377639448843585 6.336946128990648 -0.35205186242638387
24

O 4.184051205099319 2.369547955670565 3.430693714888259 0.7459340208656233
H 4.479257759916221 2.8103745174971904 4.182383035297467 -0.38640740097858495
H 4.857577632875902 2.396210122441438 2.703408979778501 -0.3474623002996101
O 2.3108991926360845 0.7523075915369932 2.0618014461698273 0.7329215861397962
H 2.8767196897953404 1.046326655879736 2.719195342201208 -0.3792440728701032
H 2.6701138113346854 7.981038120329782 1.6577043395412272 -0.35709759048196477
O 2.0764938630007714 0.9179110132929968 5.3413225117486265 0.6789862384376804
H 1.467220575769987 1.20566203832888 6.056002274256416 -0.3529517091635307
H 1.9264510420853873 1.5032489483311293 4.576421229692636 -0.3687919993073
O 1.952000304094152 6.722124577909113 3.7642746409220584 0.7659404762518354
H 1.4215934340771097 7.2193685491995785 3.011650839319943 -0.3432806227385704
H 2.2277526465295914 7.4337753472481065 4.500117591679824 -0.3702573075729513
O 4.767100409420266 5.897878608148949 2.5142013459436874 0.7181851478126673
H 5.396908607619497 6.368208129292118 3.097541401587092 -0.34850919902960364
H 3.887017712834794 5.718938935725285 2.8887898414503175 -0.36612361291351014
O 1.217820775631481 3.970849626213008 1.6458857577088337 0.7191661856671909
H 1.3364426920870651 4.786335136051786 2.097440957478452 -0.3650531803097379
H 2.0094225919008006 3.3887779008896413 1.5857288600630846 -0.3554564753883782
O 7.592539495483829 1.947412316992103 3.336767990883917 0.7277931955195953
H 7.168631128734646 2.745389394198154 3.673145364569994 -0.35063184204980635
H 0.31477447349346743 2.053365026709075 2.704949253123368 -0.3739834921553076
O 4.721442712273211 3.8194276447350775 5.634805331222939 0.6967442670044703
H 5.398078956495024 4.385384740945356 5.975923066522601 -0.36704627443267734
H 4.168339951297753 3.24739395739961 6.331579681317448 -0.35337403800737444
24

O 4.182660177577462 2.368796923272518 3.42904799667786 0.7467674964760929
H 4.486923075361226 2.811193250066207 4.192322647041602 -0.38580507958375776
H 4.852257178429236 2.3986900205463764 2.6973872274976696 -0.3473957398427795
O 2.3115875058817554 0.7538764841532275 2.0636313289313932 0.7317601709446448
H 2.881132444353687 1.0475242204133886 2.7207510604182543 -0.37985220061594493
H 2.6698339511234215 7.977373411348797 1.6589387518896281 -0.35653728507330673
O 2.077313580226628 0.9178276045699405 5.341183107205387 0.6785067363899986
H 1.4675137024969864 1.2086122408431175 6.0518046484502905 -0.35196824464470944
H 1.92232151450694 1.5121299467956635 4.580361770006799 -0.3677074462424872
O 1.9522069772232957 6.722289024362673 3.7636113708283685 0.7636876828528427
H 1.4142641079142868 7.2316088348423 2.996189925439412 -0.3402296688199872
H 2.2295567253283664 7.429864520336729 4.494841163691924 -0.3708709304026109
O 4.765752966881122 5.896023356316756 2.514189379152362 0.7165348033269061
H 5.396256469402382 6.373339599227095 3.102455278467506 -0.34681357890473596
H 3.894952940892891 5.722313872274547 2.8923104794521084 -0.36632177296671387
O 1.2189647135365327 3.96991904745384 1.6482594036800926 0.7193229613099168
H 1.3419824131272209 4.793309649426318 2.093770272072505 -0.36463900387543435
H 2.0087179927954817 3.3934034327003824 1.5818631697613186 -0.35608631574993843
O 7.592708485530074 1.9470008292448928 3.33679369495698 0.725312476225876
H 7.1670554113913925 2.7579843995184086 3.6788799245138937 -0.3481551033906849
H 0.30929606916520985 2.0593248852419324 2.700357127296994 -0.3739650914018745
O 4.720613808506864 3.8179731419830136 5.634252020866896 0.6964611122546585
H 5.3928041524814425 4.374293276019514 5.975570207442412 -0.3670538341349536
H 4.179994361273733 3.25840887637626 6.324886475336177 -0.35495214413096887
24

O 4.1812654943767935 2.3679907924398136 3.427274491889588 0.7478220679483032
H 4.495093157640362 2.8127487409713594 4.203354194884527 -0.3850639575908428
H 4.846408467925787 2.40120486731325 2.692144993911661 -0.3474917025824109
O 2.3121829001304754 0.7554368578208861 2.0653820300750136 0.7306168174807997
H 2.8867902052907084 1.0493948065784182 2.723662131668127 -0.38039118555830387
H 2.6698142222541863 7.973333337302904 1.6599776372138269 -0.3559093262756826
O 2.078109622245195 0.9177850497679354 5.341054819821476 0.678378078613131
H 1.4681164440108838 1.211308985187006 6.047256678031848 -0.35103991154519953
H 1.918288135491376 1.520755004174975 4.584527885122289 -0.36659260724941933
O 1.9523799923997838 6.722555139895523 3.7629173681543553 0.7616254933279907
H 1.408045409010469 7.2430198707654085 2.98236429397915 -0.3375461573822909
H 2.2307910295851707 7.424892114951005 4.488372176730006 -0.37162199493962234
O 4.764439918737498 5.894182881734198 2.514180806289477 0.7148545656765553
H 5.394925583062844 6.378104809798838 3.1070783180600454 -0.3451692393723724
H 3.902919165753283 5.7258698844313525 2.8960984615803778 -0.36643167148534517
O 1.2201114507633255 3.9689230162871096 1.650602626830389 0.7193574347175773
H 1.347857623348567 4.800765244800385 2.0904789235280505 -0.36405585867387147
H 2.007650209209686 3.3985296689118845 1.578199837125844 -0.356765711753132
O 7.592855931954402 1.9465902222583178 3.336844111018819 0.7226824191595536
H 7.165902850780369 2.7702842781902874 3.684218643166703 -0.3455504491577478
H 0.3037839542799783 2.065599870185284 2.69574553490858 -0.37391568141609366
O 4.719675634273612 3.8164148259647126 5.633742994299187 0.6957863036128644
H 5.388130803610597 4.363689249567335 5.975819349430953 -0.3668903514035796
H 4.192833567817816 3.2706368194846465 6.317029390991514 -0.3566873741509159
24

O 4.179876382104046 2.3671458214704244 3.4254022345373283 0.7490359952735752
H 4.503594066931909 2.8147788507164044 4.215025519530695 -0.38420457078853865
H 4.840057815116991 2.4037549399284517 2.6876658389831816 -0.3477361198182537
O 2.3126948194868513 0.7569832954376559 2.067056471609014 0.7295420534299144
H 2.893597081871411 1.0518897708126957 2.7278137766299704 -0.38085044238461985
H 2.6699990515434138 7.969049655720331 1.6608859343898212 -0.35521680260578115
O 2.078881993147779 0.9177872683441667 5.340930708943068 0.6785471559671379
H 1.4689939047017786 1.2137520188526991 6.042431082689942 -0.35017051522558285
H 1.91438611102027 1.529057030061564 4.588956187289295 -0.3654639799349728
O 1.9525095675447068 6.722924522832242 3.7621752406779287 0.7598558950170595
H 1.4030639494901405 7.2534845367068455 2.9703602110728458 -0.33533486897474085
H 2.2314849334584768 7.418958487763243 4.480804195590435 -0.37249330961365745
O 4.763182214265962 5.892365926733804 2.5141773657547333 0.713173122618832
H 5.392829434960029 6.382420674042454 3.1112945999611488 -0.34361557269922227
H 3.9106714225140027 5.729549940800344 2.9002403567336024 -0.36643609366456464
O 1.2212549535900048 3.96787802320558 1.6529224099478708 0.7192700404482144
H 1.3540404821475098 4.808531420167642 2.087467903465106 -0.3633301663428058
H 2.0063409652518986 3.404065269838879 1.5747288511949835 -0.35746955087089294
O 7.592971351692586 1.9462000062439089 3.336928012819034 0.7199630035392672
H 7.1653137312729545 2.7819864013331714 3.6890428126584145 -0.34289340821257
H 0.2982656171552591 2.0721848233794598 2.6910945725237734 -0.37381836807691005
O 4.718628375251989 3.814755786200017 5.633259959041058 0.6946620804637447
H 5.384273353088121 4.353744386043133 5.976746763451452 -0.36653132917931597
H 4.206641281100865 3.2838596914918763 6.308230266853726 -0.358484248365299
24

O 4.17850098409056 2.3662772744003413 3.423460504587862 0.7503738832801166
H 4.512251060511138 2.8170302914081975 4.226892290011405 -0.38325319995887164
H 4.833248236360469 2.4063413837807137 2.6839139581985862 -0.348115288769954
O 2.313135600698858 0.7585115980585971 2.0686607616990194 0.7285804922988031
H 2.901411865996313 1.0549386466765764 2.7330401194232876 -0.38121472308017246
H 2.6703327628112716 7.964657313106092 1.661729704999048 -0.35445960994634274
O 2.0796313274400053 0.9178373310334716 5.340803686271985 0.6789686901986294
H 1.4701023876403618 1.2159457361279649 6.037410481647586 -0.34936384732054593
H 1.9106491133369174 1.5369749383428426 4.593673880934943 -0.36435052066076135
O 1.952587222293379 6.723395875695791 3.7613688795506817 0.7584437185697908
H 1.3994156810013476 7.262911716805092 2.9603205627461397 -0.33367213838366283
H 2.231678119191339 7.412186946138217 4.472255227899611 -0.373457072781893
O 4.761999197490371 5.890580225298396 2.5141795997838807 0.7115231968477058
H 5.389904337134859 6.386218677219734 3.115006039941012 -0.3421926493237524
H 3.917967304989486 5.733298539679827 2.904823908905538 -0.36632213144339054
O 1.2223885277150734 3.9668021273920564 1.655226183028027 0.7190562927477882
H 1.3604981231079676 4.816424045944874 2.0846352210562844 -0.3624856322442206
H 2.004927419468358 3.4099075629708615 1.5714360545990893 -0.3581707342933157
O 7.593046358711504 1.9458470137759443 3.3370526110275542 0.7172202873163045
H 7.165401014559813 2.7928327274075926 3.6932536271080267 -0.3402545265359832
H 0.292762758036371 2.0790723875627375 2.686389096132558 -0.37366766322764766
O 4.7174774655185505 3.813004561308729 5.632781730705433 0.6930331208518032
H 5.3814157372082185 4.344602117728348 5.978411523394898 -0.36597406805896937
H 4.221149431586366 3.2978064010066883 6.2987814999724625 -0.360245876081414
24

O 4.177145919372665 2.365398756432517 3.4214774993815085 0.7517653895587029
H 4.520900219111813 2.819282445976937 4.238557050076741 -0.38224640258073295
H 4.8260378771535875 2.408966378977277 2.680835356291632 -0.3486109506554469
O 2.3135196518650463 0.7600187194915478 2.070203492700965 0.7277546713031549
H 2.9100593725473636 1.058455364095576 2.7391379489059435 -0.38146930157376924
H 2.670761582834633 7.960291616854094 1.662573518753909 -0.3536163785943931
O 2.0803588110993103 0.9179377943371038 5.340666906407549 0.6795773269146372
H 1.471390526336248 1.2178987020553829 6.032285783032739 -0.34862272680817075
H 1.9071086712377292 1.5444550102334036 4.598697748273243 -0.3632816639967733
O 1.9526053947437556 6.723965172469869 3.760482901874516 0.757430785576662
H 1.397170961415809 7.27123178336059 2.9523517015002105 -0.332600700639902
H 2.23142220107938 7.404719260579049 4.462866130812694 -0.374476793821245
O 4.760907855372784 5.888832311894413 2.5141871524994994 0.7099338973093012
H 5.386109552604134 6.389445579444677 3.118132916087893 -0.34093633165661763
H 3.9245786810122767 5.737064080385924 2.9099328288116464 -0.36607849830238026
O 1.223504979327949 3.9657140424351476 1.6575215014422957 0.7187110479804655
H 1.3671939167075369 4.824254465682276 2.0818808497488606 -0.3615434083580058
H 2.0035583088522593 3.415945657860891 1.5683032998656488 -0.35884427389670637
O 7.593074612414334 1.9455455666942099 3.337223516108757 0.7145230941215177
H 7.166252242706644 2.802607759691612 3.696771555576229 -0.3377026947114138
H 0.28728990699685863 2.0862524247453806 2.68161999263693 -0.3734627799698962
O 4.716234619932146 3.811175321393101 5.632282647102145 0.6908954949699571
H 5.3796983598749595 4.336367978259031 5.980848839555243 -0.36523481211767006
H 4.236031919068794 3.312146176675285 6.289058694690661 -0.3618639900513084
24

O 4.175816050777497 2.3645218883859678 3.4194795597792873 0.7531451520297259
H 4.529391025150642 2.821339392755952 4.249661911790667 -0.38123045089279295
H 4.8184975110917225 2.4116334129224195 2.678358839595521 -0.3492051006068977
O 2.3138625721908284 0.7615026307200317 2.0716949441115236 0.7271721163731617
H 2.9193419170685333 1.0623446769975398 2.7458815553553477 -0.38159996202971647
H 2.6712351957135123 7.956079223041422 1.663478421310026 -0.35275529444395004
O 2.081066153825347 0.9180903832878272 5.340513769123204 0.6803719707191789
H 1.472800726297392 1.2196229435566683 6.027154217147178 -0.3479736564912598
H 1.9037944780349378 1.5514519144774566 4.604033764151512 -0.3622784963656379
O 1.9525571250250513 6.724625847481989 3.7595022070869613 0.7567761366497221
H 1.3963788905642927 7.278392552385466 2.9465294386437835 -0.33212739837543526
H 2.2307808647449363 7.3967206047215885 4.452804260362701 -0.37551640547207443
O 4.759922032315804 5.887127334608361 2.514199106699346 0.7084246971051882
H 5.38142753013364 6.392064212811186 3.120614499975472 -0.33987216554325905
H 3.9303038313763237 5.740801055275041 2.915640852940302 -0.365695544481084
O 1.224596822132201 3.964632679314881 1.6598157678239933 0.7182326113844673
H 1.374088747937129 4.831837690947059 2.079110776821248 -0.36053248447318453
H 2.0023893239591466 3.422064485167642 1.5653088248222995 -0.3594609967676008
O 7.59305176480632 1.94530759061915 3.337444709522791 0.7119394899083815
H 7.167930972911775 2.811137308282437 3.699535965169713 -0.33531215590676744
H 0.2818546908168378 2.093711713112094 2.67678512304188 -0.37319702507803254
O 4.714918872055167 3.809289370032232 5.631733392146872 0.6883783651135449
H 5.379207764817106 4.32910264355682 5.984064815616335 -0.3643583956566291
H 4.250901244267726 3.3264848442269837 6.279531027627335 -0.363325006699047
24

O 4.174514496711573 2.3636563103886403 3.417490956423599 0.7544543666229091
H 4.53758924453281 2.8230355185279827 4.259898557234215 -0.3802660892665325
H 4.810709103166579 2.414347352786652 2.6763979146297032 -0.34987150359895125
O 2.3141804290711585 0.7629621822525533 2.073146399915362 0.7268384126335572
H 2.929050924113948 1.066507718425974 2.753035127293915 -0.3816017433518605
H 2.671707834736878 7.952137703163292 1.6645001445868182 -0.3518457662037954
O 2.0817555475067695 0.9182955060433792 5.340337807107259 0.681208278708028
H 1.4742712334890156 1.2211331958396037 6.022116982395219 -0.3473499065673811
H 1.9007337129113053 1.5579298412838551 4.609676436979555 -0.3613560651283776
O 1.9524357769370106 6.725368945911323 3.7584115852349913 0.7564852861911628
H 1.3970708769505726 7.284355746950384 2.942904144263233 -0.33225243429611506
H 2.229829821674265 7.3883890611818845 4.442269049888868 -0.3765423460100171
O 4.759051742835949 5.885468910958961 2.5142143292983223 0.7070144631203383
H 5.375863623342122 6.3940539861160675 3.1224094611622832 -0.3390234918540429
H 3.9349785840927347 5.744471854100614 2.922005887018398 -0.365166126367486
O 1.2256565831939439 3.963576331023627 1.6621160143670741 0.7176277390231096
H 1.3811421215252553 4.838998774529791 2.076239802004574 -0.3594615047228793
H 2.001577165808236 3.4281482458941057 1.5624279070594838 -0.36002047671085335
O 7.592975322041436 1.9451428566422484 3.3377185945922023 0.7095331543404224
H 7.170479035000029 2.8182850142178593 3.701503802002655 -0.3331551252189786
H 0.2764565191387636 2.1014333346231386 2.6718898123639354 -0.3728617218642506
O 4.713556406796902 3.807374511836078 5.631100873298188 0.6854816595860396
H 5.379970669152468 4.322818831552902 5.988033360472172 -0.36334620651028715
H 4.265315794594237 3.340371832592657 6.2707583926555515 -0.36452285255373695
24

O 4.173242712630208 2.3628097456049013 3.4155337604375795 0.7556317962923722
H 4.545377735166883 2.8242342384532044 4.269008049366452 -0.37940595856216963
H 4.802763744515859 2.417114512612944 2.6748527567987472 -0.35058517927549626
O 2.3144890154680753 0.7643969137288366 2.074569418805071 0.726807808838182
H 2.9389774252452505 1.0708473970828563 2.7603652894905513 -0.3814775317126863
H 2.6721389998274403 7.948572836968984 1.6656880910167728 -0.3509111254366395
O 2.0824294763859856 0.918553265602986 5.3401334402771194 0.6820789893596872
H 1.4757376887677134 1.2224456306742901 6.017276705659503 -0.3467857202779102
H 1.89795070450446 1.56386338277161 4.615608735043778 -0.36053877252684363
O 1.95223487194305 6.726183313049892 3.757195519442634 0.7565113597130007
H 1.399263083675916 7.2890944753107245 2.941504316253477 -0.3329587995670956
H 2.2286584340004163 7.379938659850072 4.431482345472002 -0.377506488276654
O 4.758302541156083 5.883859017140321 2.514231828453938 0.7057214541284818
H 5.369444333987594 6.395411338743694 3.1234962195068054 -0.33840885666155673
H 3.938486577457002 5.748048066953252 2.929064001947383 -0.3644878768973533
O 1.2266771832446057 3.962562002163287 1.6644287017044141 0.7169093402752276
H 1.3883145600596425 4.845578422116334 2.0731938912951553 -0.3584259909233889
H 2.001272577662582 3.4340859432272786 1.5596336883304525 -0.36044165960857066
O 7.592844521216096 1.9450591409317066 3.3380460399663177 0.7073589180788693
H 7.173918152184091 2.8239500345116597 3.702648722177752 -0.33129033286560106
H 0.2710873673522773 2.109396478726373 2.6669470393464336 -0.3724531925234763
O 4.712179691065472 3.8054640844252168 5.630349050732021 0.6823731148370633
H 5.381953759496425 4.317482721343178 5.99269603348405 -0.36221248772047765
H 4.278794428628928 3.3533147951005655 6.263378447334955 -0.3655028086869878
24

O 4.172000699824456 2.36198819069803 3.41362791960403 0.7566087357977025
H 4.552655681203927 2.824825182969106 4.27677738243788 -0.37868940765722636
H 4.794759241775286 2.4199426588402217 2.67361270807133 -0.35131785512825364
O 2.314803298170081 0.765806935429382 2.075975278973843 0.7270541807335678
H 2.948920594094927 1.075272475113645 2.7676504723842457 -0.3812007248966419
H 2.6724939191205053 7.945476698387384 1.6670844948936263 -0.3499450382524224
O 2.083090647852382 0.9188630211889341 5.33989587179884 0.682959103564234
H 1.4771356326301555 1.2235767791697811 6.012734548751623 -0.34627854321823415
H 1.8954662507913191 1.5692380888216713 4.6218020961391035 -0.3598576953290341
O 1.9519480381920518 6.727055769806707 3.7558381837684935 0.7567799461896043
H 1.4029575192084751 7.292591930482676 2.9423382673068583 -0.33420048084344534
H 2.2273685371070995 7.371605201081985 4.4206911876865105 -0.37836194862445416
O 4.757675070303173 5.882297922295476 2.5142510559738147 0.7045582792079921
H 5.362219822604093 6.396150139446362 3.1238732658336126 -0.3380371105630259
H 3.9407668118850068 5.751511106352648 2.936824320847734 -0.36366296369260265
O 1.2276523653486227 3.96160480205225 1.6667595484777769 0.7160763014400402
H 1.3955658211237492 4.851436885406889 2.069911080307555 -0.3574107671444443
H 2.001612507942243 3.4397763923992746 1.5568987806876 -0.3607398706229976
O 7.592660190299046 1.9450623602697106 3.338426446640417 0.7054667942838702
H 7.178251926489035 2.82806519802021 3.702960214490395 -0.3297619865078927
H 0.26573226748153733 2.117576231506912 2.6619771883546814 -0.37197771363234367
O 4.710825099511147 3.803594481616799 5.62944130929334 0.6791561219048001
H 5.385068715816844 4.313019395009349 5.997964286502757 -0.361035504439717
H 4.290849027149434 3.3648135834631634 6.258066713277298 -0.36618185256911395
24

O 4.1707872244459 2.361196071996769 3.4117912462441597 0.7573182816794441
H 4.55933799081516 2.8247220397107315 4.283036647353315 -0.3781464402200456
H 4.786797255322961 2.422840948637993 2.6725594666877646 -0.35203833794291906
O 2.3151370006895693 0.7671928267486045 2.0773746098030434 0.7276284204153141
H 2.958693840516324 1.0797000489705746 2.774687427360709 -0.38079303798276243
H 2.6727437957613795 7.942926384703439 1.6687239616789147 -0.3489874496453744
O 2.083741840050728 0.9192235528069069 5.339621345126861 0.6838099165572287
H 1.478403180539086 1.2245421874329703 6.008587139583174 -0.3458150004366982
H 1.8932974010125034 1.5740510459671084 4.628216578201664 -0.3593299725443444
O 1.9515690898629028 6.7279713854338485 3.7543236986730797 0.7572166891097549
H 1.4081421506415897 7.29484109574163 2.9453943823639275 -0.33592154820592635
H 2.226073023495689 7.363640221846865 4.4101624929093015 -0.37907262881860393
O 4.757164888300093 5.880784182872023 2.514272096002121 0.7035307548125991
H 5.354261875567364 6.396302035424955 3.123559450866114 -0.3379092352985348
H 3.941816957616266 5.754851945985152 2.945265745863431 -0.36269519514040083
O 1.2285771252229414 3.9607174762434205 1.6691134038970032 0.7151359619563877
H 1.4028571207539717 4.856457082118547 2.066342354554056 -0.3564435884755732
H 2.0027123821078017 3.445133264959081 1.5541965923459042 -0.36089570358391576
O 7.592424599916036 1.9451566705237158 3.3388578332936665 0.703895554321998
H 7.183466979535808 2.830595551322696 3.702442988131565 -0.32860650863487606
H 0.26037024880783055 2.1259434995015507 2.6570074404422246 -0.3714384207171254
O 4.70952950416969 3.801801688780651 5.628344012884551 0.676004609631006
H 5.38918144854462 4.309321301911525 6.003724565430076 -0.3598459857268782
H 4.301029332056778 3.374406552709553 6.255474682265298 -0.36660113510973524
24

O 4.169600116390573 2.360436461974371 3.410039475678328 0.7577159707088132
H 4.565354244374526 2.823859280374109 4.287654252831863 -0.37780799470704296
H 4.778980031504982 2.425819750281758 2.6715708972195276 -0.35271573178621074
O 2.315502352804363 0.7685555931796249 2.078777121631251 0.7285208687008604
H 2.9681289060698863 1.0840572320052044 2.781295501616943 -0.3802663713115677
H 2.6728658183383147 7.940983275210378 1.6706332777806752 -0.34805492409496874
O 2.0843857471786555 0.9196331452745626 5.339307332356081 0.6845935735247928
H 1.4794836470515715 1.225355102654598 6.004923349818301 -0.3453854427684151
H 1.8914569324900568 1.5783112516786542 4.634801268916981 -0.3589589775711296
O 1.9510922997832814 6.728913984480793 3.7526367818209905 0.7577661816753696
H 1.4147900413123828 7.295845417809633 2.950639973454797 -0.33806859678332335
H 2.2248921981149286 7.356301143023177 4.400173755175136 -0.37961066013653755
O 4.756762601694839 5.879314695466595 2.5142957155603183 0.7026358089934612
H 5.345663109963058 6.395916657169468 3.1225941286202876 -0.3380154750747888
H 3.941692009228411 5.758070043880408 2.9543360022802707 -0.3615908621445796
O 1.2294481111867432 3.9599100378268126 1.6714941477968162 0.7141049574236007
H 1.4101517800673717 4.8605461939933 2.0624516427508666 -0.355564521414522
H 2.004659088662368 3.450089311901074 1.551502910098536 -0.3608861224707438
O 7.592141325553219 1.9453445063843935 3.339336921580234 0.7026721847254545
H 7.189533887870358 2.831537686768639 3.7011166045090667 -0.3278533976557707
H 0.2549755405845547 2.134465088773383 2.652070835792305 -0.370833972403268
O 4.708327149953192 3.8001181851014696 5.627029693037569 0.6730229449497309
H 5.394124667898395 4.306258800343897 6.00984517666993 -0.35866098355740317
H 4.308960118230382 3.3817099432777677 6.256172695230344 -0.36675845682179375
24

O 4.168436549940847 2.3597112492934453 3.4083862177095186 0.7577692744869338
H 4.570647106712382 2.822190094671586 4.2905334525970895 -0.3776922273943818
H 4.771407003627892 2.4288903699687303 2.670525174875541 -0.3533225534538874
O 2.3159100629334923 0.7698966972433982 2.080191582977673 0.7296913082419458
H 2.9770762454344792 1.0882808942508178 2.7873167679340334 -0.37963307744493613
H 2.672843101645505 7.939692644826853 1.6728314041667627 -0.3471605673848466
O 2.0850248311200783 0.9200896668220915 5.338952693145123 0.6852962260077586
H 1.4803282643827635 1.2260251394002817 6.001821172982591 -0.3449895026459492
H 1.8899538184337241 1.5820395884121468 4.641494998087987 -0.3587499898001162
O 1.9505128350830856 6.729866777423194 3.7507637015988884 0.7583832249897495
H 1.4228574886299616 7.295620762515316 2.9580185100616725 -0.34058464877248973
H 2.223948590814666 7.349840360343936 4.39100071865766 -0.37995422319996386
O 4.756454301825395 5.877884808212343 2.5143232734769256 0.701866388973525
H 5.33653587154816 6.395061572515487 3.121037039971724 -0.3383378246637796
H 3.9404984853232636 5.761171585204895 2.963953180144735 -0.36036124707078365
O 1.2302639552004542 3.959189505727754 1.6739046104414392 0.713028312762755
H 1.4174157174489945 4.863636433191364 2.058215445178279 -0.3548304009253792
H 2.0075053528366866 3.4545994724991513 1.5487974413637142 -0.3606990715528572
O 7.591815127022158 1.9456265536531834 3.33985921217624 0.7018092012558679
H 7.196407707928932 2.830919925138015 3.699015453359648 -0.32751412687945636
H 0.24951897019654334 2.1431039255963276 2.647205062929424 -0.37016703313201327
O 4.707243890634795 3.798567126411357 5.6254846190831795 0.6703054333888714
H 5.399711648001617 4.303691039731782 6.016184046421207 -0.35749155325389803
H 4.314419044890784 3.3864983137666353 6.260522105776306 -0.36666132253260486
24

O 4.167293351956962 2.359021306009069 3.4068428557575765 0.7574453999551012
H 4.5751718551726235 2.819684222898296 4.291609047605321 -0.3777945926382832
H 4.764170979322486 2.432064638452789 2.669305581837385 -0.35383504503398533
O 2.316369252025913 0.7712180480065531 2.0816257487779346 0.7310944231051932
H 2.9854060692991102 1.092317792448202 2.79261687648338 -0.3789096351474318
H 2.6726645350789466 7.939083447255931 1.6753294982469629 -0.3463296769617541
O 2.0856611831046292 0.9205906341255777 5.3385577861944356 0.6859178507634762
H 1.4808986389493126 1.2265570927070597 5.999344892603483 -0.3446300050881097
H 1.8887926832878075 1.5852688071883902 4.648227201435702 -0.3587090381658137
O 1.9498273871256386 6.730813080279086 3.7486935802769357 0.7590209824201268
H 1.4322807286789867 7.294199199237921 2.967444548920246 -0.3433978811225381
H 2.223360103890827 7.344489678387775 4.382901938383197 -0.38008649249815696
O 4.756222237911465 5.876488459656336 2.5143564847537294 0.7012135593692659
H 5.327011060165434 6.393822204661174 3.1189681694752496 -0.3388513033590852
H 3.938384970768507 5.764167329923617 2.974009597701978 -0.35902345071518815
O 1.2310255008258444 3.9585597356463427 1.676346505950487 0.7118556490220318
H 1.4246181142119478 4.865685682816368 2.0536222740846153 -0.3541899394012512
H 2.011265680321705 3.458642717763589 1.5460652026992343 -0.3603344617953079
O 7.591451841312222 1.9460016591094131 3.340419054642521 0.7013048751388584
H 7.204028202499226 2.828803365184259 3.6961890184154935 -0.3275777061208536
H 0.24396949878942395 2.151819409055375 2.642451022991152 -0.3694494623639195
O 4.7062955758625975 3.7971608692849803 5.6237106542551825 0.6678474185117549
H 5.405749109168996 4.301475711941421 6.0225961619159465 -0.3563458806248908
H 4.317349157146562 3.388718957284876 6.268638799464941 -0.3662355872492502
24

O 4.166167313195889 2.3583666465712 3.4054183992616975 0.7567128810814492
H 4.578895932791736 2.8163260325473005 4.290844393531249 -0.37809202341513737
H 4.757354175947653 2.435354356569252 2.6678056987165877 -0.3542332001096449
O 2.316887502959636 0.772522033091761 2.083086410458926 0.7326836325930344
H 2.99300757767995 1.0961237895810831 2.797083973606484 -0.3781211342645129
H 2.672324597203591 7.939168394490487 1.6781311146771372 -0.3455971294953959
O 2.0862964086162106 0.9211332063858424 5.338124487572574 0.686448892306817
H 1.4811687672374343 1.2269500419931825 5.997542751960724 -0.3443022449630223
H 1.887973432490667 1.5880431704923788 4.654919056140071 -0.3588332231414004
O 1.949034862280257 6.7317369747887374 3.746419776944584 0.7596392399225784
H 1.4429722094902577 7.291633756441619 2.9787978050297585 -0.34642598424225535
H 2.2232326571758776 7.340446464461799 4.376103712024599 -0.37999605016855653
O 4.756045617544671 5.875118339271256 2.5143971291520155 0.7006626946074721
H 5.317236500910304 6.392301375694239 3.1164871400439558 -0.3395204953645786
H 3.935531085499611 5.7670704915761135 2.9843770146974133 -0.35760032060372704
O 1.2317358621312946 3.9580213976246568 1.678820401370029 0.7106364169709667
H 1.4317317795048579 4.866678169410438 2.048672548302372 -0.35369109355888684
H 2.0159145799854508 3.4622222804842226 1.5432976005981893 -0.35979172816634997
O 7.591058283958806 1.9464666920470757 3.341009716743536 0.7011446672128516
H 7.212319814816116 2.825283554271115 3.692702327854692 -0.32801894586874447
H 0.23829569953626414 2.1605679090307564 2.6378513343304446 -0.36869332228927376
O 4.705487190300192 3.795900245596847 5.62172658039804 0.6656517127698582
H 5.412046304316945 4.299475638581318 6.028939081210287 -0.3552122565368212
H 4.317863510861651 3.388496680321193 6.280366529953929 -0.36545098527671194
24

O 4.165055480721085 2.357746579087387 3.404119270449626 0.7555629013842162
H 4.581798383737181 2.8121134740494713 4.288229738358287 -0.3785596828263562
H 4.751024298426173 2.4387705949256557 2.665934561938181 -0.3544998139355199
O 2.317470921722959 0.7738115487978061 2.084579460512726 0.7343910619366727
H 2.9997875183271807 1.0996624780233535 2.8006271398068106 -0.3772992252237123
H 2.6718231745627006 7.939944170904988 1.6812324792932016 -0.34498584357100015
O 2.0869315302552405 0.9217142469728586 5.337656189368892 0.6868667409828408
H 1.4811264537660929 1.2271968226637235 5.996445315714526 -0.34399872371334805
H 1.8874917127949933 1.5904175342560412 4.661484994409546 -0.35910577575718816
O 1.9481372047118162 6.732624038611854 3.743941510622673 0.760223980706674
H 1.4548159926443345 7.288004527211999 2.9919156841681 -0.34958493138083546
H 2.2236515931197465 7.337856331892074 4.370782051846181 -0.3796844283928634
O 4.7559015178543165 5.873766106382144 2.514446795680828 0.7001923573391653
H 5.307374067133826 6.390617705450216 3.1137112346822127 -0.34030123112928123
H 3.9321359350669502 5.7698948307249065 2.9949126405803983 -0.35611797138376
O 1.2324003276522872 3.9575720731245685 1.6813257202998266 0.7093870467288514
H 1.4387337887838703 4.866624408711138 2.043377772634978 -0.3533497532658437
H 2.021387742970706 3.4653640946771707 1.5404929845239705 -0.3590688601241727
O 7.590642156082084 1.947016381589104 3.3416234540505485 0.7012956982368781
H 7.221191552609443 2.8204926506599746 3.6886366099976775 -0.3287987821925715
H 0.23246734066376537 2.1693033050839134 2.6334486215426662 -0.36790813591187455
O 4.704813702319902 3.7947756074871086 5.61956682667471 0.6636570324605202
H 5.418422734213873 4.297564065161844 6.035077922856621 -0.35406106854959407
H 4.316223979066327 3.386112106305946 6.2952925415404435 -0.36425259241789654
24

O 4.163955398851362 2.35715983620784 3.402949067559745 0.7540164406443797
H 4.5838700726503605 2.8070575152349897 4.283781581394085 -0.37917639650824564
H 4.745231647032941 2.4423230245618615 2.6636212729926187 -0.3546229227023203
O 2.3181241767901426 0.7750900056565599 2.086109937542898 0.7361208592584791
H 3.005668893483286 1.1029039371086242 2.8031751057686614 -0.3764702755500924
H 2.671165426132708 7.94139162498399 1.68462268433989 -0.3445049373041411
O 2.0875669258653584 0.9223304080157314 5.33715773958689 0.6871549728656985
H 1.4807740712596338 1.2272838881940433 5.996064545375295 -0.34372054318520673
H 1.8873391208550936 1.5924560710851847 4.667834602314866 -0.3595046100017346
O 1.9471402136002811 6.733461768614702 3.741265391574472 0.7607816809429158
H 1.467662471551575 7.283426540832083 3.0065844493453744 -0.3527936919378347
H 2.2246740764648645 7.336798737855139 4.36704728797808 -0.3791597549803476
O 4.75576588749709 5.8724226661786325 2.5145066612608415 0.6997789029511514
H 5.297595720125489 6.388902895410384 3.1107721367120944 -0.3411451719246049
H 3.9284062217937246 5.7726529614435105 3.0054658813448074 -0.3546060061776275
O 1.233026107475391 3.9572064560655114 1.6838607818762843 0.7081171903561208
H 1.445605925892395 4.8655611294073 2.037759843982483 -0.35316822329414777
H 2.027585250947077 3.4681136626692624 1.5376567889179507 -0.3581697809483304
O 7.5902119688504985 1.947643105444017 3.342251565075625 0.7017141790206505
H 7.230536850964856 2.8146019791588044 3.6840899381156405 -0.3298659584233403
H 0.22645674917786943 2.1779776054254745 2.6292839455212973 -0.367104626311599
O 4.704262229209278 3.7937692484658183 5.617277946523694 0.6617589564515904
H 5.42471378617585 4.295628242622709 6.040889197863677 -0.3528675820927626
H 4.312801323044931 3.3819598161612134 6.312799675735774 -0.3625627011486522
24

O 4.162865211200972 2.3566046052126732 3.4019082910996663 0.7521080121638875
H 4.585114282069494 2.8011821382975506 4.277543024745566 -0.3799122007317728
H 4.7400057543181635 2.4460189890493975 2.660819007951383 -0.3545960433129526
O 2.318850547103916 0.7763613234638073 2.0876820846164255 0.7377523016233738
H 3.010590494522825 1.1058245630778458 2.8046752881177333 -0.37564565293544117
H 2.6703616694021344 7.943476064433272 1.6882838813972236 -0.34415143501487133
O 2.0882023067505973 0.9229782186396516 5.336635303149188 0.6872839415677217
H 1.4801285805291655 1.2271915648063072 5.996393687693851 -0.34344963713410714
H 1.887503565401439 1.594230532061709 4.673874863351128 -0.3600106878573637
O 1.9460543584269803 6.7342394399847825 3.738406830241138 0.7613138148722667
H 1.481320862313224 7.278061160246316 3.022526593728681 -0.3559632889910097
H 2.226323781152401 7.337278178142616 4.364934358866717 -0.37842985057683787
O 4.755614514126858 5.871078473078787 2.514577341763823 0.6994018302170637
H 5.288078903125612 6.387298163378635 3.107811684750484 -0.34200329780542305
H 3.9245455767464827 5.775355053307758 3.0158848671040377 -0.35309923200901894
O 1.2336219730985172 3.956916628279547 1.6864228734123694 0.7068373305680546
H 1.4523353345965497 4.863549975877008 2.0318501692986604 -0.3531377278571697
H 2.034377737052159 3.4705322894983133 1.5348009627480272 -0.3571099212493467
O 7.589776975278892 1.9483366543717913 3.3428844402822127 0.7023461172652996
H 7.240233386448357 2.8078249392481878 3.6791780049767437 -0.33115383950033417
H 0.22023991336097684 2.186542579216275 2.6253952881218954 -0.36629884692375414
O 4.703816358062521 3.7928600459703508 5.614911215749789 0.6598181729656458
H 5.430773302687991 4.293570746681191 6.04626288981738 -0.35160173665905925
H 4.308003952021676 3.376473274622582 6.3321817305301265 -0.36029812268478567
24

O 4.161783677299104 2.356078533711135 3.400994100185203 0.7498743723962233
H 4.585547688594662 2.7945247870641707 4.269584954975749 -0.38072304692787806
H 4.735354653243751 2.4498629382819415 2.6575074597940107 -0.3544174974787061
O 2.3196519620227107 0.7776299096746293 2.0892994245508274 0.7392749963425955
H 3.0145063389594693 1.1084068087861372 2.805092750060503 -0.37488313804928475
H 2.669427273717612 7.946147679164585 1.692191505589153 -0.34396898268376463
O 2.088836732487152 0.9236541818456748 5.3360961527215816 0.6873013488308835
H 1.4792205349198653 1.226894612371151 5.997408048724866 -0.34324514279975327
H 1.8879698422048092 1.5958180036550604 4.679512696606347 -0.36060289594629613
O 1.944895362051699 6.7349474755802765 3.7353909628866044 0.7618084838924288
H 1.4955523477211792 7.272128117260885 3.039388793959754 -0.3589964011782444
H 2.2285886368363172 7.339222464846056 4.3644001433564705 -0.37750326482351093
O 4.755423898264812 5.869723891495353 2.5146589263750196 0.6990422709982054
H 5.2790006864238626 6.385949312393311 3.1049762014537725 -0.342826697946923
H 3.9207466217033065 5.778008089710239 3.026021728883338 -0.3516352580178308
O 1.2341978008234225 3.9566924053281336 1.6890083593625818 0.7055632381013095
H 1.4589144940372663 4.860678845239085 2.025689025429997 -0.3532473652314815
H 2.0416124291573814 3.4726922968078964 1.53194330155021 -0.35591152213911736
O 7.589347039649891 1.94908414065705 3.3435116721842553 0.7031293249354205
H 7.250144001747963 2.8004176168178927 3.6740339020500166 -0.33258603685789945
H 0.21379811313300529 2.194948549129584 2.6218157689158375 -0.36550879640268574
O 4.7034581200437735 3.79202561697936 5.612518929864644 0.6578897860481971
H 5.436475118462821 4.2913099652820685 6.051103476154056 -0.35033147345625704
H 4.302245151052025 3.37009015787456 6.35270076407122 -0.35749630160558055
24

O 4.160710067023159 2.355578683580558 3.400200075776175 0.7473793598580156
H 4.585202045116899 2.787137447598801 4.260008560843018 -0.3815794049304053
H 4.731264321022301 2.453855775129221 2.653694028023341 -0.35408364469214126
O 2.3205290355845865 0.7789006263416799 2.0909647598063628 0.740596932153839
H 3.0173857055727873 1.1106393424551613 2.8044097908945798 -0.37420026627823066
H 2.668382436571256 7.949342264270398 1.696314607782365 -0.3439423894637629
O 2.0894686563273 0.9243548757371854 5.335548407267047 0.6871539383893459
H 1.4780930455554364 1.2263634883901988 5.999066429481964 -0.3430663039489077
H 1.8887203156521273 1.5972983896669983 4.684657592175154 -0.36125667517638904
O 1.9436845423185067 6.7355762753503425 3.732253089695617 0.7622640554710169
H 1.5100635563227645 7.265918560232811 3.056730033829364 -0.36180066757716245
H 2.2314220520251666 7.342488466919651 4.365328353536286 -0.3764017656313521
O 4.755172101715288 5.868349631957986 2.514751166654726 0.6986850075076305
H 5.270530704402654 6.385000120427575 3.1024087918624907 -0.34356878357155385
H 3.91718463982222 5.780615482805027 3.035737138817577 -0.35025405574071067
O 1.2347640668388937 3.956521724403241 1.691612820353585 0.7043129264131611
H 1.4653420014348295 4.857058904982285 2.0193243556252325 -0.3534874068753219
H 2.049121038058344 3.474672180151324 1.5291062271681615 -0.3545977214276671
O 7.588932541491242 1.9498698272477752 3.344122135668945 0.7039975232064604
H 7.260117239812529 2.7926806281085073 3.6688082971047042 -0.3340833969194552
H 0.20711845133372248 2.20314714555392 2.6185724203278578 -0.3647510462624661
O 4.7031701772896035 3.7912446610232826 5.610150168964965 0.6558806516671394
H 5.441713271684737 4.28877980010184 6.055330595502769 -0.3490312223771218
H 4.295907559543788 3.3632148036197753 6.37365413186441 -0.3541656437939682
24

O 4.159643953803488 2.35510145181628 3.399516040394462 0.7447059861494929
H 4.584126253155736 2.7790881264499063 4.24894859787141 -0.3824553969091805
H 4.727699569390717 2.4579944279818564 2.6494133875999055 -0.35359555825541644
O 2.3214810566500033 0.7801787042271445 2.0926801740151526 0.7416683216514564
H 3.01921349715589 1.112517332646971 2.8026258687893595 -0.3736269076257871
H 2.667251966539535 7.952982154813161 1.70061625515901 -0.34405863605386655
O 2.0900959979644407 0.9250770605948456 5.335000718101761 0.6868257335227912
H 1.4767994389389636 1.2255656244142117 6.001313329603921 -0.34291104308399023
H 1.8897358537199433 1.5987512571443894 4.689224658148669 -0.3619422208251646
O 1.9424488807324471 6.736114601116551 3.729038606530603 0.7626846863322307
H 1.524501100112725 7.259808594256707 3.0740109350084537 -0.3642985364429028
H 2.234747408774056 7.346874544219332 4.367541263814833 -0.37515571602651443
O 4.754839510980058 5.866947223706846 2.5148537714489385 0.6983156103548545
H 5.262823731977058 6.384584939990853 3.10024096538728 -0.34418769270402094
H 3.914012946483053 5.783176961601709 3.044903985532834 -0.348991728175608
O 1.235331335886186 3.956391013790987 1.6942311979773335 0.7030971002124837
H 1.4716227461854305 4.852824049488442 2.0128108877431274 -0.3538398971355933
H 2.0567276232302807 3.4765518829555395 1.5263154233504372 -0.3531927050957092
O 7.588544127582521 1.950675351467388 3.3447042183611018 0.7048841470478384
H 7.2699904593303035 2.784954643018014 3.663667109228476 -0.3355705137349796
H 0.20019483011654413 2.2110916076851166 2.615684780376703 -0.3640380395677104
O 4.702936960076189 3.790498179098239 5.607848414764471 0.6537746126084973
H 5.446401823173289 4.285929050770778 6.05887892158357 -0.34771733162769003
H 4.289325642321208 3.3561997423238634 6.39441214526356 -0.35037427461546544
24

O 4.158584927614903 2.354642476768835 3.3989279628566837 0.7419428011278162
H 4.5823887105380114 2.770462554251362 4.236577015908666 -0.38332172461973624
H 4.724606095164145 2.462271663068813 2.644725543190888 -0.35296129506580276
O 2.322505972542176 0.7814696234577475 2.0944469891955224 0.7424887701852978
H 3.019990876515085 1.1140428833914109 2.799757822224574 -0.37318923420766403
H 2.6660649501380655 7.956977555115634 1.7050540608316667 -0.3443278630417056
O 2.0907162386535934 0.925817798155868 5.334461907419724 0.6863254823754894
H 1.4754007906655617 1.2244669141996103 6.004081539683015 -0.3427917874587777
H 1.8909968208717285 1.6002524249749979 4.693137769124586 -0.362633229955445
O 1.9412203345021841 6.736548307593185 3.725801713330486 0.7630784089251541
H 1.5384555467258554 7.254262704029471 3.0905975740773877 -0.3664332241290166
H 2.2384651088656087 7.3521376301755685 4.370816366983259 -0.37379944228570583
O 4.754409401534689 5.865509459336305 2.514966772968452 0.6979238685742131
H 5.256012925918007 6.384821450170231 3.0985846454569104 -0.3446486226441864
H 3.9113607589972337 5.785688772579796 3.0534095846347027 -0.34788366019480144
O 1.2359097949456306 3.956285586299295 1.6968579632353207 0.701922786265192
H 1.477767962203459 4.848128811413467 2.006208882264178 -0.3542757241904819
H 2.06425602103128 3.4784085920775025 1.5235983897213803 -0.35172846678348013
O 7.588192394318546 1.9514801751922746 3.345246128132789 0.7057278525795398
H 7.279594253826673 2.777612218500223 3.6587877976098393 -0.33697614545949195
H 0.19302863249524735 2.2187377415884186 2.6131636549856943 -0.36338298120382406
O 4.702745154344113 3.789769972836111 5.605650456314501 0.6516363795870488
H 5.450473568874869 4.282720037838836 6.061697167041441 -0.3464351583433215
H 4.2827791498234316 3.3493388897432133 6.41443613305569 -0.3462577900363758
24

O 4.157532196572333 2.3541964881498236 3.398417862626502 0.7391738050454826
H 4.580080462256221 2.7613663469827685 4.223107754556856 -0.38414537556854955
H 4.721913502764408 2.4666761304294926 2.639712433834405 -0.35219099057325043
O 2.3236003631494913 0.782778950142674 2.096265687130644 0.743000477392662
H 3.0197362809070873 1.1152256735164572 2.7958404364925027 -0.37291087963423897
H 2.6648542833255107 7.961226442929968 1.7095807866263528 -0.34467580857299374
O 2.09132652965707 0.9265745776540483 5.333940590753951 0.6856706896743656
H 1.4739632514944387 1.223033225167414 6.007294995499986 -0.34271358140996433
H 1.8924840631300281 1.601870525296485 4.696332591079389 -0.36331071022895034
O 1.9400345036145465 6.736859598561723 3.7226031086941336 0.7634525290418739
H 1.5514740751458687 7.249826631715277 3.1057789701083824 -0.36817063157340213
H 2.242461148587729 7.358012933505095 4.374905482128626 -0.3723716870491752
O 4.7538683944707705 5.8640308586244485 2.5150909829501265 0.6975102513291285
H 5.250203064589189 6.385802902430537 3.097523804809574 -0.34492530904756025
H 3.9093328030608747 5.788144063212852 3.0611567698454225 -0.34696461251633837
O 1.236508890118493 3.956190187905346 1.6994873017784768 0.7008007565285563
H 1.483794945860214 4.843145100244163 1.99958252527887 -0.3547625143644143
H 2.071535916175352 3.4803135110044234 1.5209831300391115 -0.3502444998972305
O 7.5878874235122264 1.9522624921498346 3.345736362998503 0.7064768515667337
H 7.288759308357536 2.7710423211923656 3.6543529526563674 -0.3382353650086172
H 0.1856292352943856 2.2260448885276585 2.6110100112548023 -0.362801832118002
O 4.7025836560986205 3.7890465979737633 5.603586232558678 0.6494748759088309
H 5.453879544267127 4.279127886609618 6.063747533332178 -0.345235186214617
H 4.276494161586917 3.3428682592274495 6.433281706431236 -0.34190125271028793
24

O 4.1564841819790175 2.35375719064374 3.397963882800163 0.7364735573718693
H 4.577317665825739 2.7519261273483773 4.208799748635549 -0.38489351766873336
H 4.719539043031292 2.4711926389445145 2.634473333290548 -0.35129988992805294
O 2.3247594019694287 0.7841121332315991 2.0981357882573612 0.7432605901274796
H 3.0184868569572267 1.1160838328386506 2.790927387584369 -0.37281101562781516
H 2.6636558724287536 7.965620883281787 1.7141455819875484 -0.345121702762511
O 2.0919238018143034 0.9273454400573767 5.333444818824663 0.6848721155138005
H 1.4725552721070365 1.221231911400848 6.010871793610227 -0.3426668714288389
H 1.8941798810393302 1.6036636629121312 4.698759308729834 -0.3639541310071399
O 1.9389282966466634 6.737027872213452 3.7195061380530525 0.7638236153976878
H 1.5630897291464116 7.247097461331319 3.1188114604775157 -0.3695047147070003
H 2.246614878904794 7.364229479827607 4.37955144668099 -0.3709150688138688
O 4.753206841165426 5.862508076124856 2.515228363795056 0.6970522025549435
H 5.2454651046504885 6.387591286242521 3.097107392634881 -0.34498492405607106
H 3.9080086835452477 5.790533257683161 3.0680650835664296 -0.34625247147906413
O 1.2371370470464036 3.9560891751249576 1.7021133124549428 0.6997494257458554
H 1.4897263733005317 4.838057764631954 1.9929980335261654 -0.3552759475070193
H 2.078407952071643 3.482329310355239 1.5184969547847764 -0.34878088473768487
O 7.5876383079152765 1.953000276311007 3.3461642168219234 0.7070631290294291
H 7.297323629295778 2.7656328026738413 3.6505432260488746 -0.3392939939934104
H 0.17801435285005685 2.2329768536094714 2.6092140437854376 -0.3622826060705272
O 4.702443147389213 3.7883169326811172 5.60167950507357 0.6474055695029677
H 5.4565884448266875 4.275139748628675 6.065004959679336 -0.3441529285666918
H 4.2706503634788975 3.3369749009896386 6.450588940032199 -0.33750953688968843
24

O 4.155438043934791 2.353317104002448 3.3975403452697877 0.7339275186583916
H 4.5742448613088 2.7422923382554467 4.193962500002753 -0.38553884039195574
H 4.717391739908238 2.475802684273883 2.629119713949142 -0.35030588165075593
O 2.3259768038895006 0.7854742546236126 2.10005568504785 0.7432906720926766
H 3.0163005845314843 1.1166452126733746 2.785092852107431 -0.37290465739826706
H 2.6625076556238008 7.970048092463959 1.7186950744314287 -0.3456361906679448
O 2.092504871558685 0.9281290858418191 5.332981757228834 0.6839478183946335
H 1.4712449125567808 1.2190332688215544 6.014727126944577 -0.3426399923925726
H 1.8960689305085145 1.605676444343316 4.700384957103871 -0.36454349101745775
O 1.9379367452447684 6.737032150885335 3.7165715683752847 0.764228586166722
H 1.5728647462798913 7.246670656240889 3.1289868947131447 -0.3704624018628472
H 2.2508061846656964 7.37052490451023 4.384502855851956 -0.3694777128491361
O 4.752419014120382 5.860940187336784 2.5153822746091206 0.6966106858667946
H 5.241832930113096 6.390212520102779 3.0973447644133962 -0.3448396489360135
H 3.9074429762504885 5.792844502894039 3.074071435945375 -0.3458019445207683
O 1.2378014755739544 3.9559671297016443 1.7047302133591922 0.6987773123931209
H 1.495589146204602 4.833058962851819 1.986521523006781 -0.3557890116170517
H 2.0847280281574774 3.484508179577377 1.5161653843712972 -0.34737105516833466
O 7.58745253944073 1.9536728571443283 3.3465204593807742 0.7075060958828696
H 7.305142108353994 2.76174442918034 3.647527265274088 -0.3401110258577452
H 0.1702103579134782 2.23950264463161 2.607754430116803 -0.36188710867225427
O 4.702315680836011 3.7875716709926914 5.599948507812748 0.6454755777127092
H 5.45858619648472 4.270754142057995 6.065456528105086 -0.34321196857764547
H 4.2653880903309105 3.3318040005719447 6.466071390443569 -0.3332433355871489
24

O 4.154389309439879 2.3528675031524493 3.397118044531851 0.7315643445765838
H 4.5710357962983394 2.732634007700399 4.1789497285338575 -0.3860670942372507
H 4.715376654001491 2.4804851509782915 2.6237696791217706 -0.3492311331410307
O 2.3272447794179185 0.7868697525059971 2.102022460610423 0.7431117853563669
H 3.013258222715522 1.1169484844572592 2.7784328603541577 -0.3732026634219898
H 2.6614485673205714 7.974393834395569 1.7231748118149948 -0.34618433767296064
O 2.0930665428485598 0.9289249724133349 5.33255742870611 0.6829423001745138
H 1.470097450258491 1.2164116330142605 6.0187763039714905 -0.34263507392794
H 1.8981389391192622 1.607937600131779 4.701195104028861 -0.36506353461737895
O 1.9370899616264248 6.736853977326044 3.7138525094337154 0.7646829850022496
H 1.580432404285721 7.249082167841438 3.135700248799653 -0.37106260552690506
H 2.254921905455043 7.376657180836721 4.389526587894205 -0.36810495929942644
O 4.751503135791133 5.859328779910898 2.515557546835261 0.6961570104484955
H 5.239302671715274 6.393654228872134 3.098204204371172 -0.344470114845139
H 3.9076657700290833 5.79506411873545 3.0791303996990904 -0.3456084368004032
O 1.2385080679634193 3.9558093354322783 1.7073325363737955 0.6978915832105399
H 1.50141283041626 4.828341792891855 1.9802168255588573 -0.35627347855319347
H 2.0903705314701213 3.486890557393518 1.51401123860487 -0.34604967115023466
O 7.587335379936522 1.9542627496170772 3.34679807766428 0.7077469520170692
H 7.312096586283607 2.759681103243969 3.645450423279216 -0.3406592264555296
H 0.16225185829270378 2.245597592927901 2.606597920100496 -0.36158382974350356
O 4.7021943261173895 3.7868032454618157 5.598407147977392 0.643783252243961
H 5.459875577320857 4.265980315882695 6.065100815511683 -0.3424422178812798
H 4.260815013747699 3.327466109003364 6.4795048579643115 -0.3292418357556457
24

O 4.153331561427603 2.3523984106309053 3.3966646619316587 0.7294556216216546
H 4.567895111673771 2.723147934194109 4.16417085044321 -0.3864642252542845
H 4.71339901325475 2.485217146897717 2.6185424282718652 -0.3481139499341418
O 2.3285540111206475 0.7883021201999985 2.1040317065248875 0.7427432908282849
H 3.00946505992975 1.1170442684116104 2.7710664539914722 -0.37369841053934194
H 2.66051734427871 7.978546129036736 1.7275308057770469 -0.34674468215172527
O 2.0936057003287107 0.9297333937716574 5.332176532551123 0.6819184487713559
H 1.4691734343119958 1.2133464153285634 6.022936620376318 -0.3426607211307281
H 1.9003811117643594 1.6104585022126892 4.70119475399088 -0.3655055958758163
O 1.9364081107253386 6.736484114650513 3.711386056557915 0.7651867050527488
H 1.585572552513239 7.254693978824328 3.138574869619072 -0.37133192723468167
H 2.2588600535357855 7.382411273176988 4.39441522540756 -0.36682430624097584
O 4.750461197910821 5.8576778925151824 2.5157603576115157 0.6956991451421375
H 5.237834672794578 6.397866467083021 3.0996148318178474 -0.34388111948556244
H 3.9086834380942355 5.797177025100957 3.0832143193710264 -0.3456778925806412
O 1.2392613966785624 3.9556023145662405 1.709915328977245 0.697097562793001
H 1.5072274607564877 4.824092429094197 1.974143032760466 -0.35670067268354033
H 2.095230591307495 3.4895044341721766 1.5120539081601756 -0.3448513381605657
O 7.587289355574554 1.9547573729581427 3.346992932754655 0.7077688425283581
H 7.318104365922812 2.759661698544116 3.6444242854933497 -0.34091756462399514
H 0.15418149632665268 2.251243923802171 2.6056992275694744 -0.3613758815348551
O 4.70207272075198 3.7860048379708453 5.597064954952123 0.6423969746714924
H 5.460475891832749 4.260837738803745 6.063947305575857 -0.3418771089895982
H 4.257012409010203 3.324043864839433 6.490716351783523 -0.3256411949885545
24

O 4.1522564779989315 2.351898869591387 3.3961457408788442 0.7276214067214073
H 4.565052899188789 2.7140432310724365 4.150068925729458 -0.3867184568816192
H 4.711367996461342 2.4899749125685027 2.613552987048098 -0.34698891887027994
O 2.329893624888363 0.7897735649258508 2.1060773094509018 0.7422019748372699
H 3.0050529960120542 1.1169963469747595 2.76313710168305 -0.3743756637930459
H 2.659751046978826 7.9823995924402364 1.7317114065139452 -0.34730500220805427
O 2.0941194082432126 0.9305554732371185 5.3318423050215955 0.6809301921220041
H 1.4685269724799073 1.2098228320084585 6.02712938568079 -0.3427128601080639
H 1.9027901913504333 1.613232640564653 4.700408387199685 -0.3658648621656111
O 1.9359000741333365 6.735925088146467 3.7091907543138367 0.7657054573589277
H 1.5882297903126372 7.263650325226312 3.1374976222543975 -0.371268706594846
H 2.2625328145001897 7.387603901617078 4.398992337664068 -0.3656529140780952
O 4.749298643870366 5.855993767472247 2.5159979187274875 0.6952541933776064
H 5.237358252331671 6.4027652362183245 3.10147154943137 -0.34308856641520546
H 3.9104794045717295 5.799167161425549 3.0863133232578353 -0.34601238688600033
O 1.2400647661072484 3.9553343784710897 1.7124743434205503 0.6964021737215171
H 1.5130609339131011 4.820481603100375 1.9683521122853769 -0.3570478053709767
H 2.099225372016979 3.4923651662196527 1.510308801263963 -0.34380738404933664
O 7.587313937292469 1.955150430475836 3.3471042584776467 0.7075605411599903
H 7.323123998192019 2.7617976751693685 3.6445183754506085 -0.3408693739906721
H 0.14604924301951847 2.2564312479045974 2.605001417157341 -0.3612663959210882
O 4.701944828280424 3.785170611655302 5.595928433538605 0.6414265743129797
H 5.460422720434125 4.255355616924522 6.06201580116364 -0.34153404363486073
H 4.2540401862467165 3.321597437313409 6.4995748488162555 -0.3225891726439002
24

O 4.151154000599749 2.3513574682010376 3.395526152970539 0.7260772450935473
H 4.5627557111560435 2.705534396102663 4.137104196484209 -0.38682784697020234
H 4.7091998884463395 2.494734731176813 2.6089076619984986 -0.34589449594162247
O 2.3312511943421588 0.7912846812090372 2.108151270664398 0.7414888089872338
H 3.000182101527035 1.116882616841268 2.754813638952455 -0.37521349880127675
H 2.659183503782283 7.985859877548552 1.7356692703520953 -0.3478505684390035
O 2.0946050048181593 0.9313931005348132 5.331556455172432 0.6800253573076283
H 1.4682043417983197 1.2058322585320411 6.031282163182612 -0.34278000244813367
H 1.9053641635679703 1.616236063989501 4.698879142653816 -0.3661418816088956
O 1.935562618390137 6.73519364178458 3.707264891115775 0.7661761873049486
H 1.5885261143212273 7.275838130313679 3.132645511217284 -0.37083672578245697
H 2.265867059667177 7.392083592205137 4.403112629140593 -0.36460245688566206
O 4.748023947963185 5.854284458177859 2.5162780163590273 0.6948306165459013
H 5.2377767790839815 6.408238306858051 3.1036423185902917 -0.34211412563792787
H 3.9130147967500273 5.801017887277557 3.088435304607775 -0.34659808824916905
O 1.240920395315715 3.9549961589048293 1.7150061994497685 0.6958090858619448
H 1.5189361652068378 4.817656172636375 1.9628867851526501 -0.35729909948370653
H 2.102294938141374 3.4954755157844453 1.5087868985700872 -0.3429399023680437
O 7.587405486490724 1.9554426698633025 3.347134898893959 0.7071166797656154
H 7.327157190404524 2.7660808810998723 3.6457555229137752 -0.3405048134535773
H 0.13791468261909923 2.2611567687630743 2.604436849952149 -0.3612565029384125
O 4.701804724999721 3.784295391106946 5.595001362452876 0.6409438739723883
H 5.459767785734141 4.24957254995652 6.059336098826506 -0.3414087860286824
H 4.251940395197598 3.3201683057598808 6.505984677393088 -0.3201990598024069
24

O 4.150013335681082 2.3507629711100306 3.3947717853012085 0.7248361244320352
H 4.561254543125131 2.6978303557510417 4.125731381363004 -0.3868065020639866
H 4.706820521021903 2.499473877775644 2.604699958945763 -0.34487065540638484
O 2.3326128530229004 0.792834192335224 2.1102436433087046 0.7405823068818125
H 2.9950402437311854 1.1167950648269043 2.746289262396055 -0.3761845946763004
H 2.6588438654227096 7.988847868942084 1.7393632650030666 -0.34836164410351544
O 2.0950601919188787 0.9322488187864455 5.331319174936645 0.6792566045514485
H 1.4682429033594542 1.2013725552238586 6.035330173461246 -0.3428614921421843
H 1.9081038489356021 1.6194287063798525 4.696667242143934 -0.36634034634371115
O 1.9353824536858146 6.734319014129764 3.705589554026284 0.7665364117851334
H 1.5867284012155998 7.29091538202805 3.1244384678552732 -0.3699904075996917
H 2.268804165619387 7.395729752158368 4.406660849470348 -0.36367860914269
O 4.746648162878225 5.852559369824651 2.516608489951872 0.6944266384241673
H 5.238974787132112 6.414152203225425 3.1059765347649075 -0.34098548895211545
H 3.9162289987003827 5.802712340764597 3.089605910299805 -0.34740344214836316
O 1.24182951488512 3.954581082476409 1.717508512297283 0.6953166359449412
H 1.524868266734986 4.815731428962881 1.9577789239502856 -0.3574414281322209
H 2.1044030663894557 3.498825734199338 1.507494325877777 -0.3422636804250354
O 7.587557491288121 1.9556418879764237 3.347091225271146 0.706421826782115
H 7.330246910075003 2.7723836117051674 3.6481115335938226 -0.3398220137925867
H 0.12983878375571875 2.2654251715998526 2.6039288116949875 -0.36132861652460757
O 4.701646442664186 3.7833744951488493 5.5942851681901224 0.6409916400853426
H 5.458578865123462 4.243536148776494 6.05594751367233 -0.3414902690819549
H 4.250740016139632 3.319782348062319 6.509880109545237 -0.3185389983517143
24

O 4.148823838762423 2.3501053069934956 3.393851964760684 0.7239134718419635
H 4.560785034874784 2.691117957074321 4.116364720424273 -0.38667456723395754
H 4.7041684168020605 2.5041714949964247 2.6010069172576045 -0.3439621320079752
O 2.3339633609310213 0.7944187063085445 2.1123424530002235 0.7394544720926273
H 2.989843099506119 1.1168399636924318 2.7377809619957807 -0.3772538258417696
H 2.6587553956049965 7.991303248216044 1.7427601369009427 -0.34882580760851223
O 2.095483124165797 0.9331256699278628 5.331129205510032 0.6786837965495456
H 1.4686703882527168 1.196448141915564 6.039217329964376 -0.34296897108913527
H 1.9110123178786258 1.622756541744852 4.693847748125612 -0.3664694732770355
O 1.9353381061392538 6.733341224719983 3.70413148505394 0.7667326716438136
H 1.583219396330271 7.308340059360233 3.1134960210045164 -0.36869102913394525
H 2.271299377454568 7.398451155448004 4.4095499798449245 -0.3628784307360633
O 4.745184486414241 5.850828798621579 2.5169967259355532 0.6940440085438273
H 5.24082436017434 6.420359194573954 3.1083130645004844 -0.3397395412339046
H 3.9200401765969666 5.80423375442433 3.089868507533038 -0.3483895028431099
O 1.2427924922046556 3.954085737435366 1.7199799746326567 0.6949203771261641
H 1.53086204187297 4.814784942479004 1.9530486049387517 -0.3574628655769252
H 2.105537757162439 3.502393788031229 1.506431984520991 -0.34179009679844585
O 7.587761059871262 1.955762179482825 3.3469827353394863 0.7054668569405607
H 7.332470602726289 2.780470966508069 3.651519446306325 -0.3388257422338957
H 0.12188543215276847 2.269248193048972 2.603393709858953 -0.36146422368343
O 4.701463864576124 3.782403627272691 5.593779203977427 0.6415976112217461
H 5.456939452316358 4.23730257167654 6.051898395357362 -0.34176945099147493
H 4.25045299406913 3.3204520318302637 6.511221469705961 -0.3176476056706443
24

O 4.14757632112364 2.349376617422919 3.3927420136604862 0.7233140717435163
H 4.561544984198552 2.685545178285657 4.1093410095619145 -0.3864489525079766
H 4.701196262951707 2.5088094716830724 2.597886362829773 -0.3432111197778207
O 2.3352864673774407 0.7960326803661948 2.1144339553961715 0.738086149383355
H 2.9848291822166604 1.1171356309112763 2.7295241882369026 -0.3783846381707261
H 2.658934571409772 7.9931871947691056 1.7458358151795805 -0.3492448346351438
O 2.0958724919418175 0.9340270123671046 5.330983951017633 0.6783561737936119
H 1.4695045233368906 1.1910698210033006 6.042897099177343 -0.34310994153674956
H 1.9140941218177852 1.6261544213097794 4.690507624851036 -0.36654262390557013
O 1.9354051851799752 6.732303620109032 3.702851754876101 0.7667248463612268
H 1.5784156495506951 7.327491604790881 3.1005030391006607 -0.3669062266099047
H 2.2733203905727506 7.400182990480665 4.4117179493589305 -0.362198254843176
O 4.743647809940732 5.8491034375430795 2.5174491432445887 0.6936986823247713
H 5.2431917327447595 6.426704837692551 3.1104885530921327 -0.33842261909798765
H 3.92434587526693 5.805565749674055 3.0892840047731465 -0.3495200903234116
O 1.2438089338147926 3.953510104827069 1.7224203897948078 0.6946153808779685
H 1.5369100944999685 4.814852525486216 1.9487039004835423 -0.3573565286683711
H 2.105711457210852 3.506145697859253 1.5055952368248826 -0.3415253707604228
O 7.588005597250866 1.9558225725076286 3.3468213908087163 0.7042599739156381
H 7.333931896183022 2.790023298436025 3.655877173284478 -0.3375283838609031
H 0.11411928872420748 2.272643806522893 2.6027438550212425 -0.361654103518791
O 4.701250684295454 3.7813787886969386 5.5934808792855 0.6427895452772332
H 5.454948038507358 4.230935870679424 6.047245407139366 -0.3422290996316174
H 4.251081430380082 3.3221777400829633 6.50999295969859 -0.31756203582868625
24

O 4.146264341807869 2.3485721792809944 3.3914255421546806 0.7230249427004882
H 4.563672959602884 2.681206962434652 4.104886971391694 -0.38613953889371033
H 4.697871833814446 2.5133732415088845 2.5953749239392563 -0.3426485904236074
O 2.336565386927021 0.7976685335747955 2.1165030421845294 0.7364724455723464
H 2.980252704782566 1.1178090769893285 2.7217655134257317 -0.37954599243994014
H 2.6593905416239756 7.994484012713341 1.7485762841568826 -0.34962452975387015
O 2.0962275917105555 0.9349563254701218 5.330879637221951 0.6783024305376664
H 1.4707528000154801 1.1852545034048567 6.046333124115487 -0.34328189992774594
H 1.917354306595706 1.6295493037052546 4.686742624910302 -0.36657494640351296
O 1.9355585274248632 6.731249754598971 3.701709398280666 0.7665209249669529
H 1.5727348706047781 7.347723190311804 3.0861549333734164 -0.36464707784359374
H 2.2748460743442003 7.400884233334502 4.413124764558648 -0.3616383187608635
O 4.742054299731242 5.847393921172706 2.517970757572197 0.693409378850361
H 5.245943127529509 6.433034920747432 3.112344787107808 -0.3370845556445724
H 3.9290238240204896 5.8066926387369024 3.087930424186715 -0.35075671308180156
O 1.2448777515580778 3.9528576300156546 1.7248306541775198 0.6943945314759583
H 1.5429917808828604 4.8159266419356594 1.9447414047513163 -0.3571230129211217
H 2.104961012872808 3.510036003925631 1.5049736576276371 -0.34146607611185187
O 7.588279556806977 1.955845334399831 3.346620802009434 0.7028193920990906
H 7.334751231822317 2.8006643800806614 3.6610571982054547 -0.3359534645155362
H 0.10660345635206725 2.2756350183220415 2.6018907279463916 -0.36188787295686253
O 4.7010004408173875 3.7802962240992226 5.593385627371666 0.6445646228170092
H 5.452717167301479 4.224507202428068 6.042052659210997 -0.3428349605469445
H 4.252615828532297 3.324948136921323 6.5062022657331955 -0.3183011187943148
24

O 4.144885252120776 2.347691030408935 3.389896107161241 0.7230242618687828
H 4.567231110768173 2.678134614439766 4.103094264410901 -0.38575237623015524
H 4.694178677251833 2.517852472094806 2.5934868022841884 -0.3422949399546067
O 2.337783529001585 0.7993169846961999 2.1185339384426647 0.7346237012043526
H 2.976372062028073 1.1189904349935191 2.7147515208202653 -0.3807159555446208
H 2.6601250292556546 7.995201485322412 1.750977910637867 -0.3499659122907486
O 2.0965483796930946 0.9359170122292774 5.330811484930321 0.6785412094094201
H 1.4724124034016108 1.1790248524112088 6.04949962048695 -0.34348479868866744
H 1.9207974876187592 1.6328636111320498 4.682654033023303 -0.3665813942130025
O 1.9357745406713902 6.730219579193634 3.700665467060961 0.7661797374798567
H 1.5665598997085757 7.368424553759086 3.071095636266584 -0.36197557654400303
H 2.2758654262227824 7.400535374406791 4.413750210529075 -0.3612043565848061
O 4.740421046052771 5.845710474378988 2.5185648975137624 0.693187598404803
H 5.248948598662289 6.439200757687526 3.1137340354705842 -0.33577352800457727
H 3.933933184486238 5.807599735202458 3.085902070410431 -0.35205428301263986
O 1.2459972097662928 3.952135101119049 1.72721268593944 0.6942471398791148
H 1.5490731887337523 4.81795769155911 1.9411475256673958 -0.35676858826485425
H 2.10334735542469 3.514008362947996 1.504550860654304 -0.3415992671791359
O 7.588571185791729 1.9558541808062664 3.346395348206475 0.7011673233567168
H 7.335056301809775 2.811991396321094 3.666917124133074 -0.33413970355572353
H 0.0993971389164489 2.278248386948677 2.600748486614759 -0.36214430748521653
O 4.700706627760296 3.7791525034975133 5.593486846793597 0.6468609366389078
H 5.450372601663105 4.218094116413396 6.03639096180239 -0.34354316377490823
H 4.255034351452183 3.3287395521450707 6.499882122718281 -0.3198337569142501
24

O 4.143440754419761 2.3467361445661874 3.3881578812267756 0.7232881411984817
H 4.572196015773026 2.676292353726178 4.103909243712426 -0.3852898562645939
H 4.69011631572649 2.5222416502294758 2.5922133363556177 -0.3421650290983994
O 2.3389253267017502 0.8009675394108641 2.1205110320753944 0.7325728133192724
H 2.973436258418145 1.1208062956596077 2.7087159645121983 -0.38187820027030117
H 2.6611327133548284 7.995369895351546 1.753047180268962 -0.3502693880221205
O 2.0968355131645797 0.9369122163275503 5.3307738974063 0.6790913559778085
H 1.474470393484602 1.1724087869128277 6.0523815717435445 -0.3437293074107508
H 1.924427060585458 1.6360184739424604 4.678345531241921 -0.3665768961870174
O 1.9360323349561315 6.729247417957895 3.699685078372914 0.7657935463210352
H 1.5602217584577507 7.389056160656797 3.0558868566510067 -0.35899980692888667
H 2.2763767109478343 7.399136457846033 4.413592056847087 -0.3609026204187129
O 4.738765744815959 5.844062622331549 2.51923301355276 0.6930432090259573
H 5.252086376753014 6.445063550568587 3.114523210451661 -0.3345363480201625
H 3.9389161180455217 5.808273613702632 3.083308401764678 -0.3533667978260867
O 1.2471648369500115 3.9513523636352206 1.7295693170167543 0.6941598903265869
H 1.555108096878318 4.820857781077608 1.9379003030279933 -0.35630179769903936
H 2.100955034844524 3.517996203803834 1.5043043629260682 -0.3419067060312736
O 7.58886916374921 1.9558727556728661 3.346159358085784 0.6993362037652449
H 7.334974241908304 2.8236007825058267 3.673308962029271 -0.33213962546042075
H 0.09255328717484966 2.2805123243492536 2.599237679247581 -0.36239915415921453
O 4.700362951065914 3.777944723574691 5.5937757855780665 0.6495793574964159
H 5.448050974482273 4.211778965298074 6.030336187697894 -0.3443140552258903
H 4.258301148803056 3.3335144106985495 6.49109383179696 -0.3220889284078847
24

O 4.14193683632429 2.3457140984758205 3.3862251643901686 0.7237827568858037
H 4.578459937973349 2.6755821404020432 4.107140361190107 -0.38474603709443833
H 4.685699965206703 2.526540542507225 2.5915233109750084 -0.3422664654102543
O 2.3399771732099155 0.8026091275331209 2.122419833331812 0.7303850242613865
H 2.9716692384199184 1.1233718349747386 2.7038654506985402 -0.38301917497031734
H 2.6624019983853953 7.995039829721898 1.7547998778226934 -0.3505420717044794
O 2.097090372912702 0.9379446714535528 5.3307606320201355 0.6799908072337268
H 1.476904087542595 1.1654388745487443 6.054974700483599 -0.3440529087605627
H 1.9282446024110436 1.6389366394572555 4.67392038070477 -0.3665773775410722
O 1.9363141380091973 6.7283610688009485 3.698738246173557 0.7654613492606988
H 1.553993828046249 7.4091650908714755 3.040996056440468 -0.355856193889329
H 2.2763868167944663 7.396705464009434 4.412664802602824 -0.36073587262092066
O 4.7371064263842335 5.842458962747319 2.5199745666374014 0.6929936913042343
H 5.255245070028833 6.450497806859825 3.1145968897363434 -0.3334200238742221
H 3.943799387177758 5.808702332978297 3.0802727904419003 -0.3546553418923454
O 1.2483773836185004 3.9505219032663255 1.73190416254898 0.6941191304805461
H 1.5610398294394505 4.824506517323024 1.9349715366398874 -0.3557342345865452
H 2.097891461815384 3.5219234811703015 1.5042055116729172 -0.34236633638749836
O 7.589163060962996 1.9559236249960332 3.3459264583918276 0.6973765970366224
H 7.334626567447292 2.835106027925551 3.6800857293302025 -0.3300155180459782
H 0.08611640717443493 2.2824552612536415 2.597288939360114 -0.36263713211056126
O 4.699963702864027 3.776670793137478 5.594241350786421 0.6526339063848452
H 5.445896242376928 4.205646675479839 6.023966968189342 -0.3451367173763068
H 4.262363850626464 3.3392188565605903 6.479932551307414 -0.3249818565830118
24

O 4.140383108303738 2.344634307801591 3.3841208598898502 0.7244526948429753
H 4.585842231156462 2.6758555695890816 4.112481381604977 -0.3841120234189399
H 4.680959797847638 2.5307544961330777 2.591363988698845 -0.34259169589890326
O 2.34092850370607 0.8042309009546899 2.124248087058803 0.728156964543011
H 2.9712516354694767 1.126781371175134 2.70036318127821 -0.38413009611641
H 2.663916042477822 7.994279047268078 1.7562598415647708 -0.35079310848966394
O 2.0973150647672427 0.939016574381566 5.330764981592517 0.6811758484521098
H 1.4796818160509244 1.1581517640237358 6.057285203654415 -0.3443984341915737
H 1.9322492716799977 1.641545245798256 4.669478723563999 -0.3665999491849533
O 1.9366051026775877 6.727581942305979 3.697799654635859 0.7652750441330687
H 1.5480954105807774 7.428383966051139 3.02680064148555 -0.3526921949750079
H 2.2759109050808557 7.393277072535114 4.410998925490707 -0.36070697404411467
O 4.735461111068849 5.840907018490338 2.5207871182098907 0.6930602380733248
H 5.258325191183059 6.455393415020454 3.1138588495630635 -0.3324684169996114
H 3.948398199825045 5.80887573908671 3.0769295867068753 -0.35588812056631935
O 1.2496307656536858 3.949658307490216 1.7342214669467364 0.6941121157420802
H 1.5668038457998947 4.8287583844459805 1.932329026494302 -0.3550835392635018
H 2.0942851736587635 3.525705856453957 1.5042196645368568 -0.3429504383655453
O 7.58944372102393 1.9560274123363053 3.3457089803398716 0.6953510169956847
H 7.334124866210187 2.8461532132901044 3.6871074880105397 -0.3278351260467125
H 0.08012072507930962 2.2841038014113906 2.5948463932758443 -0.3628501533032744
O 4.699504256554721 3.7753297997641413 5.594869835160075 0.6558513889448068
H 5.444054921996843 4.199781865313394 6.017361913766405 -0.34591525984948845
H 4.267150169985896 3.3457795651447184 6.4665342935259185 -0.3284197810130599
24

O 4.138791735944101 2.343508019222417 3.3818742839519556 0.7252329973246727
H 4.594107869066315 2.6769297851124856 4.119544463448214 -0.38337747521387033
H 4.675939713921195 2.534894549704531 2.591662887471034 -0.343124701198241
O 2.341772748537808 0.8058230637916272 2.1259867153216607 0.7260015789505567
H 2.9723047359700034 1.1310997119709063 2.698315243430929 -0.3852035531536655
H 2.6656539482829853 7.993168708685382 1.7574574276766561 -0.35102468205339854
O 2.0975124008973625 0.9401294852886574 5.330779956822998 0.6826635518836102
H 1.482763141902174 1.150587280637852 6.059329430941208 -0.3448005756982597
H 1.9364372190458603 1.643778176384759 4.665115229850761 -0.3666584507191595
O 1.936892825132016 6.726925739213703 3.69684790576774 0.7653091589062506
H 1.542699263647834 7.446420215384458 3.013600485444292 -0.3496571526471973
H 2.2749721853618574 7.388901626338553 4.408640515094077 -0.3608137667179714
O 4.733847430624274 5.839413167345404 2.5216665776343272 0.6932540015804269
H 5.2612396626853375 6.459656480745589 3.1122322826532147 -0.33171695451308736
H 3.952521607656281 5.8087857612797 3.0734199956144685 -0.35703267409311523
O 1.2509200426429996 3.948777650142385 1.7365259357908442 0.6941242274612498
H 1.5723307695704476 4.833450895981423 1.9299387588342378 -0.3543718564180278
H 2.0902831228910688 3.5292523047026076 1.5043066594693204 -0.3436243340135219
O 7.589703475428156 1.9562023821713885 3.3455175588796986 0.6933231238843407
H 7.333568741922796 2.856429434974249 3.6942449115738785 -0.3256710765056934
H 0.07458880051436059 2.285481042199703 2.591870557355982 -0.3630272677629993
O 4.698981649716879 3.7739224441578383 5.595644567173481 0.6591141545960548
H 5.442671492205304 4.194266215596871 6.010596947767923 -0.3466461692789592
H 4.2725637951410755 3.353099929959139 6.45108408456828 -0.3322721046000304
24

O 4.137176170513955 2.342347229897721 3.3795186649871596 0.7260555491872565
H 4.6029895725282595 2.6786049851744687 4.12789757383103 -0.38254620812447016
H 4.670695649830456 2.5389773236432016 2.592330222688874 -0.3438395719156634
O 2.342508068208723 0.8073777134337925 2.1276303994254384 0.724038384689154
H 2.9748789200991297 1.1363554881032487 2.6977613892296444 -0.386232486308441
H 2.6675920221006746 7.991799269049186 1.758427787975166 -0.3512281138500606
O 2.097685858328462 0.9412842679197133 5.330798459342627 0.6844304198477569
H 1.4861000483364097 1.1427877133152555 6.061133131544808 -0.3452599551157223
H 1.9408012388650389 1.645578025193985 4.660917073174694 -0.36676662658725767
O 1.937166874301522 6.726403158775042 3.6958647533711835 0.7656188081734518
H 1.5379376134663738 7.4630426045546745 3.0016316317489435 -0.3468902409433573
H 2.273601878623162 7.383644407539649 4.405651215269174 -0.3610550787982677
O 4.732282179573374 5.837982559837426 2.5226074776879273 0.693578519654056
H 5.263914607256231 6.463210419431507 3.109660215048672 -0.33119178052620135
H 3.9559787450290886 5.80842667484532 3.0698872958494294 -0.3580593602119422
O 1.2522394621947486 3.9478968369727547 1.7388225605703418 0.6941414218261839
H 1.5775495404215303 4.8384128177399806 1.927766840159595 -0.3536230781836299
H 2.086046818937618 3.532467216804722 1.5044216268935486 -0.3443515764570876
O 7.589936261029833 1.9564642327670372 3.345360849317761 0.6913525196965191
H 7.333044747897056 2.8656674507951156 3.7013816337596 -0.3235961212980011
H 0.06953069613658422 2.286605198399927 2.5883405124002743 -0.36315422686705523
O 4.698395404901555 3.7724516509944412 5.5965453074407865 0.6622558959901061
H 5.441881691372503 4.189174663845809 6.003741906222489 -0.34729914155753083
H 4.27847782485917 3.361053977415907 6.433828995002716 -0.3363779523198046
24

O 4.135549902753173 2.3411636972829477 3.3770886853522355 0.726852390019451
H 4.6122099194579596 2.680680851424404 4.137100587701163 -0.3816355894435206
H 4.6652934515685365 2.5430246742653724 2.5932619825982544 -0.3447052590767111
O 2.3431375469284035 0.8088892401594908 2.1291779347211435 0.7223690333643678
H 2.9789484310001204 1.1425375153437316 2.6986718201381743 -0.387206296811447
H 2.6697050140461736 7.990266364244447 1.7592091010836723 -0.35136948422337577
O 2.0978395166539974 0.9424810571826084 5.3308134542439065 0.6864441844294087
H 1.4896381002234254 1.1347969659786867 6.06273044700391 -0.34577078810773476
H 1.9453308191890208 1.6468976110987086 4.656962275086715 -0.36693938873895493
O 1.9374183301611223 6.7260206395623845 3.6948343269669626 0.7662211028790649
H 1.5339101815660277 7.478071150965522 2.991077482780985 -0.3445035347250869
H 2.2718392100281464 7.377585025886469 4.402108317578456 -0.3614258902661158
O 4.73078077210661 5.836619055384199 2.523603349939238 0.6940393027025067
H 5.266289919311196 6.4659967219329575 3.1061055625702316 -0.33091306456809866
H 3.958586779979268 5.807795352593466 3.0664708516023365 -0.3589476332351086
O 1.253582577070007 3.9470329600558363 1.7411164444164446 0.6941518534430202
H 1.5823904342400281 4.843471560160678 1.9257811197242451 -0.35286132134875614
H 2.0817474419109576 3.5352529094234204 1.504516143984681 -0.3450971787497199
O 7.590137590186649 1.9568262658803843 3.3452454432783423 0.6895007665147741
H 7.3326271155858 2.873643898771986 3.7084142338925474 -0.32167964790896797
H 0.06494374293274949 2.2874886536876358 2.5842552131125514 -0.3632229036845772
O 4.697748404964384 3.7709232133441737 5.597547611354268 0.6650936809712189
H 5.44180549612905 4.1845715646773 5.996857233913375 -0.3478509657201495
H 4.284727795704814 3.369480075651184 6.41509158733222 -0.34054336771547855
24

O 4.13392567208676 2.3399683356108105 3.374618739851126 0.7275493544599079
H 4.6214968994684185 2.6829665198081374 4.146728660087433 -0.3806694723088452
H 4.659806318130216 2.5470630907703176 2.5943435944501947 -0.34568863248688886
O 2.3436689235305272 0.8103544697643605 2.1306321661903382 0.7211670225372078
H 2.9844134132828057 1.149594783457917 2.7009505416752377 -0.38810516514408333
H 2.6719671350260015 7.988666782476905 1.7598410970205487 -0.3514920563655919
O 2.097977971191635 0.9437192578284799 5.330818150562767 0.6886707111932688
H 1.4933177822375205 1.1266597078412157 6.064162597476428 -0.3463284988392169
H 1.9500121558435894 1.647701131490894 4.653318335379754 -0.36719012428992426
O 1.9376393693871954 6.725781066675085 3.6937424241421337 0.7670921455191715
H 1.530691562027814 7.4913666001734285 2.982079030261403 -0.34257895181331033
H 2.269731364234006 7.370816662833665 4.398104727331342 -0.3619132065600963
O 4.729356624654993 5.835325172123422 2.5246471711235965 0.6946438383696121
H 5.26831970664609 6.4679755163364 3.1015509548535984 -0.330896245228104
H 3.960180195324149 5.806891519517572 3.0632992264335237 -0.3596848034700396
O 1.2549424552278912 3.9462027218184623 1.7434126376878891 0.6941458760202464
H 1.5867875900601371 4.8484603480605095 1.9239520817192308 -0.3521113073581287
H 2.0775599616187415 3.5375125198260164 1.5045397461500085 -0.3458272634011621
O 7.590304507797707 1.9572994504913523 3.3451758140047847 0.6878304121742802
H 7.332378060428534 2.8801787500923584 3.7152527386495127 -0.3199827245707846
H 0.0608129083214411 2.288137474742543 2.5796338567926433 -0.36323520902322215
O 4.697047808890515 3.7693464813149347 5.598622172439011 0.6675727843663792
H 5.442540179687301 4.18050701860665 5.989991171958284 -0.34829416687920756
H 4.291104180504942 3.3781744792054798 6.395283832494784 -0.34467431690148786
24

O 4.132314851810585 2.338770770016537 3.3721414598494235 0.7280676569315774
H 4.630596971902072 2.685288456954702 4.156391270009344 -0.3796810584938636
H 4.654311825063315 2.5511227957485314 2.595454104238155 -0.3467492983986076
O 2.344113873086011 0.811772502903411 2.1319995657335418 0.7205031077221324
H 2.9911091627504423 1.1574403455108377 2.7044448896186184 -0.388909108227805
H 2.6743530479733035 7.987095542817972 1.760363327025928 -0.3515492971729616
O 2.098106224873696 0.9449975684933164 5.330806188519591 0.6910761772744003
H 1.4970760604447777 1.1184205104124259 6.065476236098762 -0.3469283370404507
H 1.9548281627290185 1.6479650201565834 4.650041126023143 -0.3675329371102244
O 1.9378229891667689 6.725684233052911 3.6925760337131486 0.7681880468089755
H 1.5283367837714423 7.50282618512983 2.9747405277082306 -0.3411754567266213
H 2.2673335314026617 7.363444935775721 4.393749088342404 -0.3624988968490942
O 4.72802052671609 5.834102039804933 2.525731818280436 0.6953975701691866
H 5.269972720863212 6.469126077602894 3.095998456097992 -0.33115044117335013
H 3.9606202601716913 5.805718003985549 3.0604832556654262 -0.3602636364992362
O 1.2563120147882931 3.945421869867618 1.7457159580131427 0.6941141051312374
H 1.59068122719867 4.853222548107475 1.9222538033216947 -0.35139654369334095
H 2.073655611502202 3.5391536317102195 1.5044420112451105 -0.34650825185323353
O 7.590435471691093 1.9578926059316513 3.3451543849293612 0.6863986899344714
H 7.33234872485085 2.8851324289010747 3.721820173155227 -0.3185588527234593
H 0.05711178895805194 2.2885513898866705 2.5745152467899026 -0.36319608452320473
O 4.6963059613166696 3.7677350135972123 5.599734049161434 0.6695705107126257
H 5.444154341000873 4.177013861382772 5.983177893467244 -0.3486365127173241
H 4.297343866694103 3.3868846401323243 6.374921866301531 -0.34858115148180546
24

O 4.13072717685891 2.3375791632952865 3.3696867429662642 0.72833358326028
H 4.639283137121035 2.687494967630465 4.165743601779454 -0.3787143817188704
H 4.648888731019905 2.555236604743923 2.5964706822470403 -0.3478458928618213
O 2.3444872222576363 0.8131447649895729 2.1332892257976073 0.7204893215126007
H 2.998820327329434 1.1659578390543515 2.708959225434264 -0.3895975168542708
H 2.6768385456279264 7.985642917238831 1.7608140722296244 -0.351523224627334
O 2.0982295702171547 0.9463139692789352 5.330771803840816 0.6936225182719262
H 1.500848185254942 1.1101229776501624 6.066721473997124 -0.3475649015142165
H 1.9597586338097654 1.647678564384606 4.6471739505388125 -0.3679769672963269
O 1.9379627581240542 6.72572731162802 3.691322899427722 0.7694152760423782
H 1.5268823516327528 7.512371053867883 2.9691395846605713 -0.34032554089962297
H 2.2647087083653843 7.355588750330366 4.389166100664509 -0.3631585152763753
O 4.726780060622482 5.832949352576676 2.5268504722602674 0.6962979186970562
H 5.271232874688234 6.4694473656537435 3.089469286903689 -0.33167316888649057
H 3.9598036406353243 5.804280941632524 3.0581099253683073 -0.3606817529935654
O 1.2576844341719915 3.944704673021721 1.7480308038788348 0.6940508003335748
H 1.5940194584625005 4.85761660073714 1.9206643136999906 -0.3507428683721865
H 2.070193610566537 3.540092189106557 1.5041750237660738 -0.3471088649195667
O 7.5905302078720975 1.9586125478985246 3.3451816534574492 0.6852537547993258
H 7.332580015347384 2.8884030489247867 3.728052143163038 -0.3174574897925758
H 0.053803978780243455 2.288724254907666 2.568956376680338 -0.36310627314790045
O 4.695541083120513 3.7661070119979216 5.600842068686447 0.6710413623692553
H 5.44668340902427 4.1741055674239895 5.976436701675853 -0.34889438011485463
H 4.303123656909699 3.3953035016991966 6.354636011399517 -0.35213279601039615
24

O 4.129170828279254 2.3364003082282525 3.367281247976184 0.7283027252615468
H 4.647358108425061 2.6894573270902336 4.174490308426878 -0.37781601043184976
H 4.643613671106838 2.5594385919181635 2.59727366214995 -0.3489391030448663
O 2.344805597640496 0.8144742600626417 2.1345120919752647 0.7211476058334672
H 3.007297917187852 1.1750095382598325 2.714270808103435 -0.3901516845627381
H 2.6794010237997012 7.984392198586716 1.761229432022809 -0.35140064647145697
O 2.0983534642974906 0.9476657065007441 5.330709985230283 0.6962446164237985
H 1.5045695829482097 1.1018089445695183 6.0679497185028906 -0.34820400102173255
H 1.9647804681310204 1.6468443331959233 4.644746779851777 -0.36853033675744595
O 1.9380526301067755 6.725905362187801 3.6899711976330947 0.7707242434336317
H 1.526352989700241 7.519944852427637 2.9653300105488625 -0.34004086546913825
H 2.261926909781125 7.3473788104526 4.384495771460345 -0.36387052481713245
O 4.725639102089598 5.831865319135262 2.5279969451634265 0.6973373110994163
H 5.272099868360107 6.468958640163104 3.082003579549287 -0.3324533508630425
H 3.9576696613177513 5.80258994801859 3.056237426640017 -0.3609403316595765
O 1.2590536047362273 3.944063462635881 1.7503609723454119 0.6939530657204427
H 1.5967593529650672 4.861518981634814 1.9191658446082531 -0.35017042474834326
H 2.06731272825238 3.5402565575052507 1.5036960343372665 -0.34760469896444013
O 7.590589560064203 1.9594641672495132 3.3452563438059917 0.6844344049058568
H 7.333103217694778 2.8899242448291007 3.73389663769387 -0.3167174673107084
H 0.05084487227860829 2.288644921901025 2.5630301467561276 -0.36296836331425686
O 4.694777284482786 3.764485117672682 5.601899350621052 0.6719742209919279
H 5.4501268607912445 4.171775137223373 5.969772327798498 -0.34906595720519373
H 4.308062740728665 3.4030742228492454 6.335162004968882 -0.3552444270282328
24

O 4.127652353603133 2.335239478610562 3.3649479618962768 0.7278990506538667
H 4.654654328757944 2.69106903475385 4.182384685383049 -0.37703705571107315
H 4.638557302303843 2.5637623104700653 2.5977518415112164 -0.3499907790364829
O 2.3450860165214387 0.8157645371177035 2.135680524718936 0.7225857265405795
H 3.016279961404866 1.1844496066972565 2.7201467047182515 -0.390561617347959
H 2.6820198268380464 7.9834183099967735 1.7616425905028283 -0.35119239644693234
O 2.0984833886327463 0.9490493135464056 5.330616660327824 0.6989574599721782
H 1.508177649568432 1.093517656070892 6.069211298422859 -0.3488894409213452
H 1.9698679308463933 1.6454784166097864 4.642775663530967 -0.3691977349602701
O 1.9380868704734557 6.726211706642434 3.68850942298312 0.772002672597095
H 1.5267700649092377 7.525519821834696 2.9633390501959407 -0.3403062135623387
H 2.2590641353276575 7.3389555124659225 4.379891694660067 -0.3646001045116748
O 4.724597439673163 5.830846611756796 2.5291659102944695 0.6985113832332923
H 5.272589881718456 6.467700107732611 3.0736601033281095 -0.33347601185568754
H 3.9542056514669177 5.800658270083698 3.054891782097942 -0.3610493114715261
O 1.2604145684149097 3.943508259194648 1.752709493492608 0.6938211394134612
H 1.598868002259626 4.864826547800096 1.917744756297627 -0.3496978963469046
H 2.0651235122225864 3.539591229694403 1.5029701024933797 -0.34797521589422475
O 7.590615330091611 1.9604504764227555 3.3453755927704276 0.6839748354427388
H 7.333940535448626 2.889663209677113 3.7393138827095918 -0.3163681749598435
H 0.04818365286938221 2.2882984067621734 2.5568225357258103 -0.3627904154326028
O 4.694043974844136 3.7628956837299743 5.602854611062793 0.6725103801250676
H 5.454448350431431 4.16999564351545 5.963176670349936 -0.3492374610569786
H 4.311732171102061 3.4098011171373153 6.317318035707352 -0.3578928184625323
24

O 4.12617730505987 2.334100997339561 3.3627062725078147 0.7271174876958408
H 4.66103239313047 2.6922436847134263 4.189225058693048 -0.376424663235718
H 4.633780855267501 2.568239028662748 2.597807693899955 -0.3509678499529153
O 2.3453455362568194 0.8170201922435272 2.1368069147048727 0.7247547524153952
H 3.025501327375158 1.1941268755408105 2.7263538544390826 -0.3907970474867921
H 2.6846764569039765 7.9827866175211 1.7620833119651285 -0.35086064725503796
O 2.098624697172042 0.950460644277844 5.330488886462248 0.7016931651270786
H 1.5116142959500962 1.085285388575997 6.070552763853398 -0.34957576503036947
H 1.9749929523041043 1.6436105508463366 4.641262229144627 -0.36998487600785357
O 1.9380600105644528 6.72663826284503 3.6869263143022106 0.7731431167051603
H 1.5281440337347976 7.529078875868232 2.963179730578283 -0.341098001904241
H 2.2562013311189384 7.330466766660754 4.375519291835787 -0.365312639027921
O 4.723650602766653 5.829888325513456 2.5303529825659177 0.6998172486279821
H 5.272736227198949 6.465733460914292 3.0645158492710305 -0.33472059742055527
H 3.9494490100822497 5.798502870926145 3.054065974232239 -0.3610260275981749
O 1.261763904885824 3.9430464996786285 1.755078490235637 0.6936570114286538
H 1.6003228416459976 4.8674576711505635 1.9163913456996091 -0.3493399469894293
H 2.063701757296263 3.538060028869999 1.5019725263416526 -0.34820500498638796
O 7.590610126936259 1.9615726129653035 3.3455351410183276 0.6839019743374848
H 7.335105457501209 2.8876193325007162 3.744276406046837 -0.31642473833450735
H 0.04576529859954623 2.287667200730467 2.5504295339891287 -0.36258797592693515
O 4.6933738418370305 3.761366828202802 5.603655798626986 0.6726977476880938
H 5.459577996661782 4.16872182812731 5.956631560910895 -0.34942117218330015
H 4.313684145559623 3.415078692130589 6.301944644286537 -0.36003555068551285
24

O 4.124750351449392 2.3329882642518753 3.360571765053054 0.7259424993870842
H 4.666379481254531 2.6929137033299053 4.194852082564299 -0.3760098715788338
H 4.629332938304385 2.572895872906789 2.5973621498171093 -0.3518385077224858
O 2.34560037630525 0.8182463421176259 2.1379031675868903 0.7276663470232052
H 3.0347089322299414 1.2038947308993668 2.7326711503912957 -0.3908678863177091
H 2.687354737263844 7.982552065679115 1.7625775945104325 -0.35041511689683336
O 2.0987824714425267 0.9518949012125194 5.330325038856089 0.7044240331549765
H 1.5148276684272832 1.0771449236296748 6.072014398100794 -0.3502584829518176
H 1.9801254829233916 1.6412839667481307 4.640193404232936 -0.3708917074806659
O 1.9379669372041768 6.727175942230698 3.685211056061161 0.7740656584212395
H 1.5304767563542778 7.530616259596501 2.964850875237066 -0.3423923496421224
H 2.2534220040492885 7.322063303282878 4.371551098857817 -0.36597751261062894
O 4.722789928841618 5.828983960194886 2.5315546523777237 0.7012399496137796
H 5.272589802664381 6.463142136446152 3.0546653137182966 -0.3361564923752465
H 3.94348567532501 5.796144425906513 3.0537216882187073 -0.36088692775585274
O 1.2631000324800479 3.9426828234329605 1.7574690590265407 0.6934658298781766
H 1.6011118858576188 4.869353114363704 1.915099619350952 -0.3491080926172996
H 2.0630835019511338 3.5356486648418026 1.5006909615237496 -0.3482845883057082
O 7.590577228754175 1.9628297922296323 3.3457295165545227 0.6842305796423662
H 7.336602906376774 2.8838236171894005 3.7487694127242523 -0.3168942807777274
H 0.04353257936771538 2.2867326140853477 2.5439539296158564 -0.36237285738782077
O 4.692800430592669 3.759926231624427 5.6042538939727775 0.6727152237875531
H 5.4654179043875715 4.167893503781866 5.9501123725681015 -0.349660568245319
H 4.313485215993518 3.418523173152215 6.2898398730554925 -0.36173487824231
24

O 4.123375620039137 2.3319040284410795 3.358556274637877 0.7243834287988733
H 4.670606826364803 2.693029114813867 4.199145410420967 -0.37581576165494013
H 4.625246926861128 2.577754065069474 2.596358635362097 -0.3525773575045975
O 2.345865306065974 0.8194482079493944 2.138980376233129 0.7313033642874969
H 3.0436696797801415 1.2136156384158474 2.738896085107517 -0.39080768798002485
H 2.6900408976113916 7.982758678610185 1.7631474361785573 -0.34986299620037153
O 2.09896138670448 0.9533466664453512 5.330124959243251 0.7071295920795577
H 1.517773937411401 1.069125286989201 6.073627828127347 -0.35094048138828726
H 1.9852338735704869 1.6385550956626878 4.6395413443523585 -0.371911994029128
O 1.9378030705632425 6.727815052209887 3.683353658449169 0.7747076539169389
H 1.533763202148459 7.530139700590935 2.968335854121601 -0.3441573194285207
H 2.250809131066821 7.313892718290134 4.3681604327458645 -0.36656571267818605
O 4.7220028654370365 5.828125436690244 2.5327680971269197 0.702756982640323
H 5.272219244946414 6.460031167132554 3.0442193814799317 -0.33774464191003917
H 3.936445217505063 5.793607180260867 3.053793395823159 -0.3606504621347725
O 1.2644233508701197 3.9424189411223516 1.7598811981259739 0.6932553111469513
H 1.6012338295296518 4.870476726229291 1.91386708242836 -0.3490092971571437
H 2.0632627036180664 3.532366121930658 1.4991267895847538 -0.348210943865784
O 7.590520468212591 1.964219206393153 3.345952198182151 0.684960387011669
H 7.338429150293284 2.878338864240614 3.7527915100491374 -0.31777246566755246
H 0.04142794026495208 2.2854761187464536 2.537501991956801 -0.36215363566441205
O 4.692353285935663 3.7585968479762952 5.604610621810741 0.6727352867613945
H 5.4718494437420375 4.167439783494209 5.943591861944285 -0.35002650898578436
H 4.3107860228437564 3.419835239083501 6.281631891548008 -0.3630247403936635
24

O 4.1220569142769 2.33085056987919 3.356667935000156 0.7224767649477148
H 4.673647493978631 2.692554150387407 4.202017696815537 -0.3758625082168202
H 4.6215391654383255 2.5828274058414364 2.5947660244957835 -0.35316927599050885
O 2.3461533263485674 0.8206309328851349 2.140048572428911 0.7355455045351889
H 3.0521761670781467 1.2231649897955907 2.7448493237520895 -0.39057530525031103
H 2.692723643673153 7.9834392732900765 1.7638106843492805 -0.3492208147593777
O 2.0991655975037955 0.9548099399920565 5.3298900524108435 0.7097843099630841
H 1.5204187748977895 1.0612516775173197 6.075413956773053 -0.35161755679629436
H 1.9902852760950822 1.6354930011137414 4.639263691877134 -0.37303555621876816
O 1.9375645983861292 6.728545651889206 3.6813454507385686 0.7750122718963495
H 1.537990945126648 7.52767122354805 2.9736019086699166 -0.34634807231933207
H 2.2484417765831233 7.306093128401554 4.365514296772171 -0.36704666734644953
O 4.721273410424094 5.827303110735347 2.53399088995113 0.7043472798637356
H 5.271711292999847 6.456527211367457 3.0333043142147087 -0.3394415872515324
H 3.928493563087632 5.79091867289051 3.054193963356125 -0.36034196098735305
O 1.265736206641981 3.9422536091602125 1.7623137945005165 0.6930367857156969
H 1.6006979835012787 4.870815793600579 1.9126944667723813 -0.3490469577144155
H 2.0641918788363767 3.5282446955932047 1.4972955748257604 -0.34798782045512167
O 7.590444144628916 1.9657358851324427 3.3461957455295117 0.686077439157835
H 7.340571516212303 2.8712605176484343 3.756355779820495 -0.3190369819112806
H 0.039395196251745354 2.283880666183825 2.531180291369338 -0.3619432409820107
O 4.692054342181509 3.7573941258536108 5.604703547824302 0.6728311634298783
H 5.478740738917202 4.1672832434222 5.937043329227585 -0.35048059248302754
H 4.305370871189586 3.4188412612420866 6.277696891830168 -0.36395662082686464
24

O 4.1207978786077035 2.3298298619977653 3.3549112874298785 0.7202705448972955
H 4.675454494979182 2.691464981163782 4.203410269385917 -0.37614695197435843
H 4.618208138474764 2.588121139859722 2.5925802362985646 -0.3536054760995567
O 2.3464756647846636 0.8217995846093198 2.1411167131505797 0.7403184727713006
H 3.060046907805332 1.2324313413828916 2.750374222619722 -0.3902233788771603
H 2.695394189563164 7.984615433955613 1.7645810526697943 -0.3485073723951255
O 2.099398649247487 0.95627819131154 5.329623344480534 0.7123595025466976
H 1.52273836198156 1.053545622235323 6.077381443319639 -0.3522793941611507
H 1.9952460897154953 1.6321783787901638 4.639304294432295 -0.37425010664180214
O 1.9372488036511588 6.729357879834455 3.67917977054182 0.7749387066356226
H 1.543138649346113 7.523249089311851 2.9805984462960677 -0.3489041267417864
H 2.24639096539499 7.298785619916258 4.363764445789175 -0.36739342137783637
O 4.72058272806525 5.826505894536382 2.5352207453447964 0.7059915313132512
H 5.271169789504596 6.452776972187102 3.02205938898351 -0.3412029927295306
H 3.9198242886441457 5.7881093559202474 3.054821022794556 -0.359990730269347
O 1.2670426854243362 3.9421827069621806 1.7647646742945726 0.6928234040878247
H 1.599524101635451 4.8703811965272825 1.91158547393874 -0.34922064907189565
H 2.0657856089129942 3.5233386601780436 1.4952265543072398 -0.3476244060715208
O 7.590352955941389 1.9673725406292144 3.3464518985445264 0.6875562429540443
H 7.34300798682128 2.8627179510600946 3.75949111313119 -0.32064968848362463
H 0.03738101278637325 2.281931852528148 2.52509276922833 -0.36175877150113966
O 4.691914676558545 3.756323671588935 5.604530075160577 0.673112461263411
H 5.485954567223337 4.167344450656225 5.930443760112966 -0.35106411763329937
H 4.2972016954532934 3.415527029720969 6.278093769137031 -0.36454928244033113
24

O 4.1196021088489605 2.3288437114871443 3.353287478485954 0.7178238208744832
H 4.675999008750564 2.6897495951962744 4.203291691969473 -0.37665434254642727
H 4.615234669430147 2.5936312808431126 2.589824321200074 -0.35388374869365835
O 2.3468418367723496 0.8229592746161357 2.142192516512057 0.7454730253550848
H 3.0671272874115636 1.2413175112885633 2.755337602207291 -0.3897766083205261
H 2.698046308418687 7.986297422403344 1.7654680759476544 -0.34774580805595856
O 2.0996634154396894 0.9577444289528452 5.329329461132711 0.714832820324999
H 1.5247198472505448 1.0460253197955753 6.079525864848926 -0.35292240522444385
H 2.0000824674832622 1.6287020489785744 4.639594445682783 -0.3755389472172562
O 1.936854435486249 6.7302421893230155 3.676852747456344 0.7744939664871944
H 1.5491723815484306 7.5169285075289745 2.989255973702363 -0.3517634357280264
H 2.2447154758996155 7.292066830640967 4.36303799833356 -0.36758491288004747
O 4.7199099375987865 5.825721493401481 2.5364553114323805 0.7076667710887996
H 5.270713209190587 6.4489439129812105 3.0106332286189503 -0.34298165915782675
H 3.910648639792039 5.785212090706062 3.055563913233973 -0.35962694623250135
O 1.2683482644302109 3.9421994009592285 1.7672307067117616 0.6926309800320944
H 1.5977420923233767 4.86920735123312 1.9105465259833478 -0.3495262974783493
H 2.06792636126168 3.5177217836260044 1.492961266612152 -0.3471362562901904
O 7.590251945609647 1.9691194218776744 3.3467116519005673 0.6893564863456891
H 7.3457067833461815 2.852875826442611 3.762243667919742 -0.32255718787781673
H 0.035336143840968316 2.2796188992608744 2.519338127070219 -0.3616174750410037
O 4.6919330367946035 3.755380437328006 5.604107991509943 0.6735954536750965
H 5.493354709990191 4.167545348006785 5.923775478656651 -0.3517639004054077
H 4.286434762487564 3.4100456912076234 6.282551942044753 -0.36479339303398417
24

O 4.118473162019135 2.3278938399904665 3.3517944827882045 0.7152051979897425
H 4.6752692820550585 2.6874075047760213 4.201656612772245 -0.3773614216776303
H 4.612583112943541 2.599344468800759 2.5865470649734053 -0.35400804609761694
O 2.347259852115668 0.8241153451848136 2.1432824619534814 0.7508419758104179
H 3.0732874439863855 1.2497395776083957 2.7596277748692626 -0.38925657628064936
H 2.7006764186853185 7.988484417892378 1.7664771788697324 -0.3469671966821972
O 2.0999620685004063 0.9592012954627676 5.329014521125267 0.7171890274759554
H 1.5263612732512766 1.0387061017229564 6.0818296015907185 -0.35355279855927735
H 2.0047608576006595 1.6251629402074017 4.6400547268187164 -0.3768792570309699
O 1.9363821033204833 6.731189407486324 3.674364135988214 0.7737065939764487
H 1.556041545298643 7.5087846665477604 2.9994833908178804 -0.3548582168663328
H 2.243458038767505 7.286002640771317 4.363428670145838 -0.36760532024602355
O 4.719232973757708 5.8249367265948235 2.5376920315099603 0.7093456761531134
H 5.270471109676266 6.445203751725622 2.9991793304722365 -0.3447290659053198
H 3.9011855008390857 5.782261527852639 3.056310327659281 -0.3592794891337797
O 1.2696593988811478 3.94229436477555 1.7697079436179426 0.69247753409896
H 1.5953915941940355 4.867351846618208 1.9095865093941513 -0.3499562520679521
H 2.070471507064796 3.5114841853370016 1.4905516237120477 -0.3465450015613838
O 7.590146482524332 1.9709641183066007 3.346965271819344 0.6914218543007473
H 7.348625670105183 2.8419364261113045 3.7646789056723136 -0.3246948471879385
H 0.03321644042712068 2.2769354416793304 2.5140075214030895 -0.3615313929225318
O 4.6920974479366455 3.7545505832411727 5.603471019711542 0.6742505843690736
H 5.500810865791703 4.167811848280089 5.9170272001116 -0.35254521762213153
H 4.273390216707375 3.4026849843650595 6.290540097352455 -0.36466834433275164
24

O 4.117414475298979 2.3269819069906683 3.3504273548833665 0.7124930638560463
H 4.673270030382646 2.684448953241669 4.198524308295471 -0.378239404953139
H 4.6102034399449465 2.605238386075619 2.582820303253955 -0.35398924408721877
O 2.3477357205045615 0.8252724465628044 2.144392448188454 0.7562621437609416
H 3.078420913727142 1.2576262377928666 2.7631532818593514 -0.3886884755506421
H 2.7032836354035292 7.991164877460808 1.7676097878964236 -0.3462043993311634
O 2.1002960857937 0.9606411917625792 5.328685937890974 0.7194126039258133
H 1.5276710049495108 1.0316009634680523 6.084262404479615 -0.35417550588849334
H 2.0092485353317837 1.621665575561076 4.640597490871006 -0.378246188932717
O 1.9358346937439637 6.732190499780739 3.671718179818613 0.7726048260352181
H 1.5636839926732353 7.498935520853453 3.011152007571124 -0.3581097700076685
H 2.2426424105669533 7.280623807541391 4.364989677972378 -0.36744370721729336
O 4.718529488938548 5.824137963192673 2.538928131814769 0.7110030186837095
H 5.2705789874913105 6.44173820072126 2.9878505295798212 -0.34640035411966674
H 3.8916523239336698 5.779293420745016 3.0569520280871707 -0.3589771330808008
O 1.270983043969844 3.942456063730606 1.7721917972177532 0.6923566244558201
H 1.59252140286678 4.864894882653697 1.908716472243956 -0.3504986594888406
H 2.0732615179432132 3.5047284715153517 1.4880573908959283 -0.34585253123556714
O 7.59004223527742 1.9728914511364013 3.3472023175301526 0.6936847756594449
H 7.3517115866418905 2.8301407112260595 3.7668832122435325 -0.3269884127001884
H 0.030983652581578744 2.2738801703837535 2.509182530438703 -0.36151030349380187
O 4.692386516180413 3.7538129863165053 5.602665476710313 0.6749991239159485
H 5.508201973732083 4.168075521927969 5.910194366653285 -0.35334395518119033
H 4.258528120239738 3.393841913119068 6.301319150866915 -0.36414813502459087
24

O 4.1164292169351855 2.326109483841024 3.349178503612751 0.709774327923594
H 4.670022284324305 2.6808934505440494 4.193936707137644 -0.3792509893954039
H 4.608034007268273 2.6112826704528556 2.578735126193535 -0.35384263146460504
O 2.348273960341168 0.8264351947479265 2.1455274599177767 0.7614809170864159
H 3.082442682145959 1.2649178441547573 2.7658412197902877 -0.3880885008304342
H 2.705869789901221 7.994316931433713 1.7688634754319235 -0.3454730733468505
O 2.100666287744935 0.9620564245842831 5.328352149722122 0.7214855144283385
H 1.5286666583915236 1.0247211350368788 6.086782642787012 -0.3547875132605799
H 2.013514086487448 1.6183171689864848 4.6411298372662575 -0.3796177491728453
O 1.9352177097937424 6.7332361980909745 3.6689243153194595 0.7712734986884311
H 1.572016045793037 7.487539766611091 3.0240960523977103 -0.3614177785340865
H 2.2422715004770333 7.275923817436955 4.3677287674037375 -0.36709778556588823
O 4.717777766228797 5.823311700266774 2.5401607850420587 0.7126195621222646
H 5.2711715208397 6.438726438428502 2.976792194183918 -0.34795810133800065
H 3.8822579965072155 5.776343953808253 3.0573890442746134 -0.3587483507683077
O 1.2723261293682413 3.942671059377076 1.7746772346137063 0.6923423483130982
H 1.5891888685929199 4.861938524006646 1.9079493892519692 -0.3511363498179666
H 2.0761282978234115 3.497565527852658 1.485543525499095 -0.34514726219085656
O 7.589945134053545 1.9748834658316183 3.3474116774554488 0.6960732437720036
H 7.354900663852316 2.817767944514345 3.7689649818865743 -0.32935669224923536
H 0.028606041074662733 2.2704573030817605 2.5049334149632663 -0.3615657061218114
O 4.692774922233266 3.753144154905009 5.601740714954334 0.6757994931027274
H 5.515418283853768 4.168274539769018 5.903278770054065 -0.3541803183923332
H 4.242359387978814 3.3839450841041647 6.314095687331336 -0.36318010298760606
24

O 4.115520088653493 2.32527798708237 3.3480379665634934 0.7071374238148347
H 4.665563669833618 2.676768224635838 4.1879566435138935 -0.3803605045452244
H 4.6060047561596456 2.6174402328978905 2.5743973278462535 -0.3535837382905712
O 2.3488778771537016 0.827608476884223 2.1466914694084167 0.7663742371596163
H 3.0852868815940595 1.2715651845194904 2.767635365917616 -0.3875152983005
H 2.708439546272808 7.997908962686311 1.7702320535592617 -0.3448347087287392
O 2.1010728978986952 0.9634394024754858 5.32802226469629 0.7233879759733741
H 1.5293735688847268 1.0180766615588064 6.089339158513744 -0.35538209490438777
H 2.0175279657608165 1.6152239095711451 4.641557475536425 -0.3809710686098772
O 1.934539572255741 6.734316308342203 3.6659977841605205 0.7697604620125973
H 1.5809252984443243 7.474802950152488 3.0381081562529233 -0.36466819432814945
H 2.2423269169750526 7.2718595483897355 4.3716062463516945 -0.3665637210545809
O 4.716957647202978 5.822445207257764 2.5413873323742604 0.7141839220074382
H 5.272373242151028 6.43633553771839 2.9661352455329606 -0.34937208598664804
H 3.873196546008009 5.773449058213869 3.0575331195831357 -0.358622611027545
O 1.273695177261947 3.942924362215844 1.777158976635257 0.6924173334654298
H 1.5854590642032356 4.858605034298962 1.9072999383157478 -0.35185507088956447
H 2.0789033331669646 3.490110424963061 1.4830770868916987 -0.3444246127111038
O 7.5898613374464885 1.9769194230317126 3.3475815901752313 0.6985147178932889
H 7.358118184008173 2.805135474143698 3.7710559066956977 -0.3317170476645195
H 0.026058926564544237 2.2666769569462226 2.501317487361679 -0.36170890684388146
O 4.693235653118355 3.752520210745935 5.600745622061953 0.6766072625777724
H 5.522361652656953 4.168353874184381 5.896288213737837 -0.35498467587058624
H 4.225409651139609 3.3734246008562345 6.328080149306596 -0.36181899514844784
24

O 4.11468905788899 2.324488548934242 3.3469936216601948 0.7046759415585158
H 4.659949315472552 2.672110612798166 4.180671741341213 -0.38153492687396684
H 4.604040596671358 2.623668870078291 2.569922512776202 -0.35323109656505725
O 2.349549443218041 0.82879708943453 2.147887665238865 0.7707257048647795
H 3.08690555008308 1.2775290055277309 2.768495244018372 -0.38697688766837623
H 2.7110003850858084 0.0019003491399711692 1.7717058008007958 -0.34429959710581426
O 2.101515622936391 0.9647828668133567 5.327705644333524 0.7251104250060387
H 1.5298230276118328 1.0116768811574883 6.091873605721888 -0.3559598533011129
H 2.0212630970868104 1.612486794907087 4.641789151139367 -0.38228345708768563
O 1.9338119420128164 6.735418543201686 3.6629602344087555 0.7681311222130467
H 1.590267564579413 7.460996533001359 3.0529251603003784 -0.367750677085355
H 2.242770099413461 7.268354824031664 4.376536537550766 -0.3658473679416385
O 4.716051368783016 5.8215271582849155 2.5426055254773754 0.7156844612714663
H 5.274290609977404 6.434711033400605 2.9559899584709406 -0.35061770191183483
H 3.8646423303961197 5.770643781617614 3.057310061181165 -0.3586236114917828
O 1.2750959206144177 3.943199809175601 1.7796316874118632 0.6925956705735212
H 1.5814035051518462 4.855035832944271 1.9067838324076818 -0.35263572751351757
H 2.081424476763672 3.4824786566948625 1.4807247552060596 -0.3437171386727399
O 7.589797082841301 1.9789762167558957 3.347699871844645 0.7009370600692
H 7.361280403133955 2.7925918176952345 3.7733089751306363 -0.33399251777543837
H 0.02332531172295356 2.262555460336694 2.498377416212294 -0.3619449908192953
O 4.693742767401196 3.75191897845199 5.599724360128786 0.6773570565947955
H 5.528946041939814 4.168265386017542 5.889235693842855 -0.35573021583173625
H 4.208175014943162 3.3626769510175545 6.342553151407617 -0.3600716745060575
24

O 4.113937057562184 2.323741849768751 3.346031346500813 0.7024763900700333
H 4.653253956692327 2.666969399501467 4.172197502193885 -0.3827350524139076
H 4.602064711714956 2.629923040067355 2.5654312203937537 -0.35280474287834973
O 2.350289401697743 0.8300057823520156 2.149118420756195 0.7743780285001183
H 3.0872676459180877 1.2827795840558531 2.768395315183229 -0.3864902289043872
H 2.713562653626388 0.006242392283981194 1.7732716076352728 -0.34388732462304006
O 2.1019937500527583 0.9660801433563404 5.327411447636256 0.7266502329582443
H 1.5300503229107671 1.0055307932805864 6.094323030720201 -0.3565245521597441
H 2.024694722496288 1.6101974501069087 4.641741262439572 -0.38353332981605703
O 1.9330499279864835 6.73652722265509 3.6598400736223806 0.7664545908627096
H 1.5998602127843973 7.4464723251405704 3.0682188867805573 -0.3705659620467553
H 2.2435447970624165 7.265306268862874 4.382392862375536 -0.3649690981163758
O 4.71504433894065 5.820548309649746 2.5438138359033906 0.7171080312652829
H 5.277002677141656 6.433966705160193 2.9464399476902674 -0.35167617405830764
H 3.856747121083105 5.7679617314750375 3.0566608364142116 -0.35876679857352767
O 1.2765330776935182 3.9434804736164337 1.7820901414932706 0.6928967555767427
H 1.5770985421823183 4.85138673819667 1.906417593885638 -0.35345536312196346
H 2.0835411468207505 3.474783081546559 1.4785507098757202 -0.3430678750450047
O 7.589758488600305 1.9810289866573974 3.347754243863877 0.7032736477949537
H 7.364297202507741 2.780506738182398 3.775894766275264 -0.33611651033985546
H 0.020396318716087894 2.258115608094525 2.4961397474038174 -0.36227341922821654
O 4.694272834554817 3.751321009913616 5.59871448668997 0.678037792088197
H 5.535097625245325 4.16796777724344 5.882138674269056 -0.35640628258129237
H 4.191099134009985 3.3520484500083887 6.356895120494056 -0.3580027552094558
24

O 4.113263701101537 2.3230379431568324 3.3451351336832786 0.7006161234303763
H 4.645572325147244 2.661404372118465 4.162677630480263 -0.3839183730501067
H 4.600001364217767 2.63615553630548 2.5610445654941647 -0.35232340746557556
O 2.3510973050997577 0.8312392033142478 2.150385272869403 0.7772555913381056
H 3.0863586820613653 1.2872967555374764 2.7673246318701157 -0.386079140830192
H 2.71613940236816 0.010879495698317851 1.7749132331584185 -0.34363960030758167
O 2.102506252157738 0.96732539493566 5.327148166614824 0.728005137363912
H 1.5300925875314189 0.9996473633572655 6.096622493207525 -0.35707258241459783
H 2.0278019937186578 1.6084337084741436 4.641342607838875 -0.38470333936316803
O 1.9322722220884585 6.737621848984804 3.656672653408895 0.764786788873963
H 1.6094763146401228 7.43167703803309 3.0835865726396468 -0.3730270761164016
H 2.2445805535047776 7.262590683848033 4.389014368879176 -0.36395978702185194
O 4.713925746156211 5.819502076382919 2.5450117144263102 0.71844574187481
H 5.280552350753642 6.434175864312097 2.937537914687596 -0.3525363434787473
H 3.84963871295674 5.765434625863469 3.055541705323745 -0.3590642287083393
O 1.2780102296257383 3.9437491406963265 1.784529387769026 0.6933335549239845
H 1.572623508281239 4.847823847430747 1.9062178304644553 -0.3542916322188663
H 2.085118711248497 3.4671310867649194 1.476614713440289 -0.3425133060001371
O 7.589751245214241 1.9830521532624217 3.3477328994431934 0.7054721984256651
H 7.367076617261334 2.769254696919766 3.778993877497622 -0.33803482512374505
H 0.017271683980261805 2.253386798197792 2.494613395357737 -0.362694226663169
O 4.694805641325788 3.750710102029251 5.597746489166856 0.6786888810796265
H 5.540754733230494 4.167426471435505 5.875018349761678 -0.35701026038369044
H 4.174562107895826 3.3418286533526214 6.370596658808052 -0.3557358881642688
24

O 4.112666978476049 2.322376053957484 3.344287112741009 0.6991606082348065
H 4.637022131783587 2.655487793292313 4.152287885094362 -0.3850457723709041
H 4.597778693316898 2.6423192539877847 2.5568801967379984 -0.3518030085568512
O 2.3519715286470357 0.8325018091393949 2.1516888570881214 0.7792483071003584
H 3.0841810026000664 1.2910704341979222 2.765287028793887 -0.3857699281933179
H 2.7187462531392583 0.01575085299278845 1.7766115222920453 -0.3435008210883961
O 2.10305189250781 0.9685138546496356 5.3269231941129815 0.7291746180642604
H 1.5299870414548369 0.9940356033409975 6.098707795586188 -0.35759311366663593
H 2.030567156263116 1.6072560610792936 4.64053855483746 -0.3857808474247688
O 1.931501109609733 6.7386757289420425 3.6535001933017046 0.7631676623659309
H 1.6188400188802043 7.4171653195120735 3.0985435207894345 -0.3750705152531737
H 2.2457969772918593 7.26007336806184 4.3962152638063 -0.3628564904593865
O 4.7126890207097 5.818384926324296 2.546199690876095 0.7196980152881327
H 5.284941613868478 6.435365491151118 2.929303877286539 -0.35319447163249773
H 3.843419469121575 5.763091893759715 3.0539244016142835 -0.3595260422377208
O 1.279529686918232 3.9439887953703776 1.786944891039903 0.6939039073101005
H 1.5680583518081088 4.844518068826544 1.9062006086359102 -0.35512221136786126
H 2.0860416944960014 3.4596222617747445 1.4749705633253387 -0.34207690932876234
O 7.589780282315846 1.9850205205252394 3.3476251444390925 0.7074973667384377
H 7.369529654912681 2.7591973289471956 3.7827880475040385 -0.33970678303769963
H 0.01396018612740595 2.2484050552949286 2.493788269162697 -0.3632098768386569
O 4.695324189637782 3.7500731449709575 5.596844221428494 0.6792698859381547
H 5.545867700061298 4.166613444009676 5.867898959391429 -0.3575433747792892
H 4.1588807217236115 3.332252574874225 6.383252185659197 -0.35332020480424886
24

O 4.1121429857272895 2.321754381965965 3.343467556335734 0.6981605261659936
H 4.627745646044024 2.6493055564672425 4.141239143345006 -0.3860803541359392
H 4.595330845512418 2.648368744534155 2.5530487035188756 -0.3512629019302148
O 2.3529091681158607 0.8337975845458898 2.1530289077207816 0.7803889218085636
H 3.0807545711337467 1.2941014936749533 2.762301712825449 -0.3855791669239744
H 2.7214012038823987 0.020791652841992136 1.778345161793822 -0.3435059299387462
O 2.103629325238315 0.9696420220473166 5.326742455640298 0.730163928171685
H 1.5297691163470337 0.9887046261873227 6.1005179425568326 -0.3580797833644159
H 2.0329760520416764 1.6067045501964108 4.639294573688592 -0.38675037225363884
O 1.9307619190188197 6.7396557221158675 3.650370674789525 0.7616318892250384
H 1.627631831058967 7.403597292238478 3.112529418719474 -0.37666727192563054
H 2.247108325698533 7.2576164522747755 4.40379490978043 -0.3617013348384912
O 4.71133205150256 5.817196540547692 2.5473793254082566 0.7208658256181013
H 5.290128407017516 6.437514005471312 2.921726106358117 -0.35365023226537506
H 3.8381654725695538 5.760960357846375 3.0517959711919174 -0.36015737658427316
O 1.281092547304503 3.944183162236288 1.7893326555800688 0.6946064297085874
H 1.5634812231300506 4.841638371977297 1.9063806771099208 -0.3559305934460466
H 2.086215915814272 3.4523466119252393 1.4736649065930931 -0.34177776739034815
O 7.58984929619009 1.9869108311972767 3.3474223453793366 0.7093270864469365
H 7.3715773786294285 2.7506588250271475 3.7874464489317132 -0.3411074850825474
H 0.010480069847560527 2.243212974782003 2.4936339628427353 -0.3638194013954362
O 4.695814299283381 3.7493997151966596 5.596025890593215 0.6798455259857632
H 5.550398683423956 4.165507038765636 5.86080712250841 -0.3580088065395397
H 4.144314917937571 3.3235078366515216 6.394544996907346 -0.35091135511607474
24

O 4.111685696137512 2.321169919007149 3.3426548692283484 0.697647199595506
H 4.617911056042653 2.642958023717841 4.129779987011359 -0.3869895848948266
H 4.592599678612179 2.6542616204629543 2.5496506192466706 -0.35072229146484424
O 2.353905942921631 0.8351297545207965 2.1544042180309755 0.7807134678402801
H 3.076118589471779 1.2964032305878117 2.758404477023778 -0.3855192956917467
H 2.724124151258383 0.025935193287585367 1.7800911266715946 -0.34364544802640185
O 2.1042371884576956 0.9707078040727471 5.326610121580911 0.7309884312877384
H 1.5294709048115878 0.9836635805223303 6.101997306455276 -0.3585314576060231
H 2.0350181590221728 1.6067967650956767 4.637598720674925 -0.38759798701741655
O 1.9300820795922216 6.740522917194351 3.6473360203053886 0.7602322307296565
H 1.6354999034383 7.391721633076953 3.124926124417521 -0.37783287817923217
H 2.2484280118951183 7.255086468995787 4.411548017617568 -0.3605472412322476
O 4.709857145707178 5.8159397184557395 2.548553015725129 0.7219495258149142
H 5.296027629445778 6.440552988654009 2.914764595995198 -0.35390729043271174
H 3.8339261514095013 5.759064017869185 3.049158368245575 -0.36095622137881966
O 1.2826988002729378 3.944317285256182 1.7916893307019761 0.6954454841777262
H 1.5589658314788346 4.839343858834689 1.906770609114299 -0.356700106214465
H 2.085569594697856 3.4453832849178587 1.4727364234963058 -0.3416414834594952
O 7.589960265479632 1.988703397311507 3.347118996275723 0.7109505077310319
H 7.373158230189848 2.7439002438542963 3.7931098676029804 -0.34222752745126805
H 0.00685938575342655 2.2378595766033573 2.4940986002299077 -0.3645169280098379
O 4.696264188434753 3.7486816667411733 5.595305028125565 0.6804574500326894
H 5.554321487080146 4.164091783803005 5.853771271836158 -0.3584217463353123
H 4.131074971016969 3.3157415450075844 6.404232959562602 -0.3486268098148393
24

O 4.111286812022485 2.320618305018156 3.3418256189963764 0.6976284022174202
H 4.607712944169831 2.6365604501443203 4.11819817735138 -0.3877454826299409
H 4.589536265930784 2.6599598555471045 2.546773920659698 -0.3501996674753911
O 2.3549561276599587 0.8365005555986075 2.155812520032234 0.7802920706504708
H 3.0703334061953216 1.2980030458361573 2.753649084488573 -0.38560616110338974
H 2.7269362043821177 0.031114905133840333 1.7818252938043844 -0.34389826980998894
O 2.1048741884331608 0.9717105866831041 5.32652842031168 0.7316664020233083
H 1.5291199000071503 0.9789215115858974 6.1030973997036115 -0.35894440737671196
H 2.0366865140636548 1.607527064437024 4.635462817279726 -0.388313121820559
O 1.92948923216979 6.7412356621604665 3.644448592805659 0.759032284199888
H 1.6420862261073133 7.382321606408557 3.1351042441210177 -0.37861649109475537
H 2.2496724461017137 7.252360292073219 4.419273587890887 -0.35945270129472506
O 4.708270749587759 5.814620046871303 2.5497236835384336 0.7229522611270593
H 5.3025156415064325 6.4443725919075225 2.9083565526663 -0.3539746459930758
H 3.8307241833973364 5.757423909854031 3.0460279513903163 -0.36191556889717724
O 1.2843474601687603 3.9443781225967807 1.7940123022847898 0.6964237834470273
H 1.5545787034770915 4.837775353076088 1.9073799768171331 -0.35741546548859604
H 2.0840538533991824 3.4387995405637075 1.4722152612188528 -0.34169093791486094
O 7.590113048328967 1.9903835257355977 3.346713721942286 0.7123671895502066
H 7.374234507135402 2.739097303750593 3.7998753685258833 -0.34306892068732464
H 0.0031360799815134295 2.2323999386747544 2.495108229548177 -0.36529507867540056
O 4.6966640370847 3.7479127329969604 5.594691398956038 0.6811473855144929
H 5.557621240125728 4.1623581472492575 5.846821093467918 -0.3588031401079276
H 4.119328863475511 3.3090670401600515 6.412135048577061 -0.34656971835999995
24

O 4.110935689847591 2.3200937221906326 3.340954600830869 0.6980914028889078
H 4.597372039166324 2.630244186598944 4.106822779593329 -0.3883286801499285
H 4.586101941889332 2.665430999567165 2.5444919976668694 -0.3497149053445051
O 2.356052458698073 0.8379109859963472 2.157250330546232 0.779227662887719
H 3.063482797614576 1.2989444800551273 2.7481089762486013 -0.3858560765375454
H 2.7298590442331894 0.036266434447134094 1.7835231401426759 -0.34424715999096467
O 2.10553916930488 0.9726512286261098 5.326497567552735 0.7322127908160667
H 1.5287380240476538 0.9744871775649788 6.103778250337567 -0.3593088964093625
H 2.0379775562638685 1.608867076706943 4.632922210364121 -0.3888871489983081
O 1.9290091181935747 6.741753340758279 3.6417573018177385 0.7580943875946218
H 1.647056669332711 7.376149577637737 3.1424767206971227 -0.3790864411588999
H 2.2507645176730082 7.249329824993699 4.426783085929607 -0.35847012931189637
O 4.706582977458362 5.813245380612952 2.550894384517197 0.7238838911512762
H 5.309437722381795 6.448829904214154 2.9024231162761724 -0.35386680593522435
H 3.8285554576356113 5.756058003198229 3.0424349656851244 -0.3630265494460989
O 1.286036680700891 3.9443551307124096 1.7962997786546557 0.6975337928545671
H 1.5503768236086213 4.837047253880123 1.9082145863829607 -0.35806729215547917
H 2.081643197151726 3.4326496753248583 1.472122493642039 -0.34193341554304124
O 7.5903051174377545 1.9919425346336521 3.3462100708484037 0.7135854959864452
H 7.37479707067824 2.7363256200615638 3.807783584925014 -0.3436418077136555
H 7.99935774893379 2.2268945946469745 2.496566980545592 -0.3661468071943421
O 4.697005524982429 3.7470880555368558 5.594191772816273 0.6819640876929738
H 5.56029424313524 4.160302417550572 5.839986906381267 -0.3591693507600263
H 4.109209649973353 3.3035703921836617 6.418118491470354 -0.34484204522329776
24

O 4.110619543550074 2.3195889595995385 3.3400152729486554 0.6990080675407608
H 4.587130879610788 2.624155285512265 4.096020043593884 -0.38873279222067414
H 4.582269109845844 2.6706492164433953 2.5428619205341785 -0.3492906734495166
O 2.3571860260275312 0.8393603125161032 2.1587127537241306 0.7776385767796454
H 3.0556770218090525 1.2992898367664647 2.7418796737983544 -0.3862762710518861
H 2.732914229437598 0.04132974804765364 1.7851605463454927 -0.34468151548781645
O 2.1062311686478865 0.9735319799021317 5.3265158105289 0.7326411736835734
H 1.528340910335355 0.9703688445922893 6.104009413594312 -0.35961560411868265
H 2.0388909058976856 1.610767407203989 4.630034171397762 -0.38931146664178007
O 1.9286621879452477 6.742043543832375 3.639301459322325 0.7574438045753042
H 1.6501519690927435 7.373811073654757 3.1465894985701635 -0.3792882225941073
H 2.251636395258179 7.245905342965724 4.433907293156701 -0.3576400608633209
O 4.704807044487132 5.811825233837639 2.5520679118978906 0.724756153229567
H 5.316616950496643 6.453758642411101 2.8968761861284404 -0.35360358996633356
H 3.827389129396207 5.754981208829624 3.0384230362407294 -0.3642753738837512
O 1.2877638550884118 3.9442407684029366 1.7985508584116106 0.6987643382273958
H 1.5464058027986152 4.837243886564218 1.9092758780151138 -0.3586538240190027
H 2.0783357377981906 3.4269741016290354 1.4724696761790947 -0.3423643880063929
O 7.59053147131208 1.9933781601191936 3.3456169208328466 0.7146171157154808
H 7.374867241167555 2.7355536336963286 3.8168110222375082 -0.3439625545722612
H 7.995580929420683 2.2214086703783327 2.4983582737996195 -0.367062170267609
O 4.697281533852359 3.7462038548906897 5.593810425832833 0.6829594085846646
H 5.562347023122202 4.157926105504639 5.833299396867717 -0.35953060518909075
H 4.100821139992829 3.2993152242443657 6.422089833937631 -0.3435395260041145
24

O 4.110323906046557 2.3190956378052747 3.3389805637136147 0.7003376036751963
H 4.577245492141274 2.6184498785402854 4.086182190414362 -0.38896307837099053
H 4.578021926291672 2.675596229424052 2.5419228752365077 -0.34895195846320715
O 2.3583462067923 0.8408462734479953 2.1601933138310683 0.7756266914527723
H 3.047055184610376 1.299122462416761 2.735080672571669 -0.38685953548401353
H 2.7361223620478925 0.046251155163196625 1.7867146459155978 -0.3451877294149971
O 2.1069494616634894 0.9743563343661388 5.326579570700582 0.732967255016649
H 1.5279374330171662 0.9665740742229464 6.103770622831894 -0.3598613334374924
H 2.039429079321388 1.613160404879032 4.626875088968957 -0.38957879993303945
O 1.9284610483484446 6.742087723984267 3.6371061696639964 0.7571087738594284
H 1.6512263287252884 7.375672256028607 3.1471899838638335 -0.3792711991739479
H 2.2522313294126177 7.242017191539101 4.440501040455461 -0.35698870390481907
O 4.702958708179939 5.8103701962809415 2.553246461719811 0.7255776098672657
H 5.323862741881539 6.45897832811397 2.8916242991666454 -0.35320965845927976
H 3.827167847833967 5.75420549040092 3.034048619896168 -0.36563893614197396
O 1.289525686352085 3.944030892694516 1.800765578414562 0.7001097791083744
H 1.5426987107199484 4.8384069183226055 1.9105605449859193 -0.3591769409247185
H 2.0741532487903647 3.4217985036644776 1.4732584684895893 -0.34298078496465234
O 7.590784793909632 1.9946943035967992 3.3449483997443883 0.7154718381251661
H 7.374495550032408 2.7366485339504596 3.826868821323054 -0.3440517755909954
H 7.991869808882754 2.216010725577129 2.500347334695821 -0.36802542117897685
O 4.6974859144825185 3.745257201476841 5.593549591035927 0.6841818640455035
H 5.563796437261354 4.155236002270098 5.826789066505872 -0.3598986944947208
H 4.094241690899353 3.2963461191100887 6.423988068089738 -0.34273686521256586
24

O 4.110033393951287 2.318604626865816 3.3378241531871797 0.7020272247988912
H 4.567972447620835 2.6132865530623173 4.077708576886047 -0.38903369328463233
H 4.573356837206226 2.6802623053364516 2.5416947448007217 -0.3487226234282167
O 2.359520586821989 0.8423646122187397 2.161683784610773 0.7732702237738289
H 3.037787653607605 1.2985489537677632 2.7278573122418375 -0.38759103020251684
H 2.7395022573167105 0.05098529457509436 1.788164764537015 -0.34574414150262067
O 2.1076935945409083 0.9751288296375771 5.3266836660385515 0.7332048560623003
H 1.5275294999348492 0.9631095141835292 6.103052060456344 -0.3600444121214833
H 2.039597151456063 1.615963750145485 4.623536682605611 -0.3896859920988741
O 1.9284088254463176 6.741885279563922 3.635179400576887 0.7570859261423968
H 1.6502726962155605 7.381794871495028 3.1442713569663185 -0.3790424595426186
H 2.25250442253616 7.23761556454667 4.446445485382013 -0.3565329129430862
O 4.70105565457997 5.808891316081853 2.554431329017857 0.7263538316751654
H 5.3309801776607015 6.464304006274077 2.886578107736069 -0.35271479151327123
H 3.827808099717145 5.7537399723600045 3.0293803651004714 -0.36708557237976325
O 1.2913182176203366 3.943725026876106 1.8029449371490953 0.7015659492514299
H 1.5392756874899325 4.840535413663657 1.9120603846386792 -0.3596381676681849
H 2.069141019835601 3.417133215555316 1.4744803759944942 -0.3437806072991678
O 7.591055836740846 1.9959001768289317 3.344223302026229 0.7161591442101427
H 7.373757543720034 2.739391268200486 3.837808257372853 -0.3439345644109256
H 7.988294393265709 2.2107713440153067 2.502384962364404 -0.36901654637519155
O 4.697613314621876 3.744245842748318 5.593409805197284 0.6856664358877784
H 5.564669007201059 4.152243771912264 5.820485885348809 -0.3602878158766962
H 4.089527681376589 3.294691552330107 6.423779223253913 -0.3424782611547498
24

O 4.109732585466914 2.3181065421017055 3.336521951217938 0.7040169989421732
H 4.559554316666451 2.6088175256318364 4.07098362203625 -0.3889648619115811
H 4.568283013189835 2.6846472617530157 2.5421767704907863 -0.34862559002523363
O 2.360694902703692 0.8439088760477075 2.1631740495855287 0.7706321595329721
H 3.02807787613892 1.2977011494498727 2.7203821997904796 -0.3884516403022622
H 2.743070174690132 0.0554966371098726 1.7894931669987837 -0.34633032021182075
O 2.108463407108359 0.9758548113312494 5.326821600124924 0.733359561973481
H 1.5271120752839638 0.9599807025438163 6.101854286596155 -0.36015875084473736
H 2.0394023952130915 1.6190845391481192 4.620121569820034 -0.3896348895816133
O 1.9284989613524521 6.741454500849852 3.6335116224048907 0.7573339856603143
H 1.647425717507024 7.391921583567617 3.1380769196975775 -0.3785650718956496
H 2.2524229634324957 7.232669922184103 4.451649483291661 -0.35627432616097465
O 4.69911691428886 5.807399548239157 2.5556226898703933 0.7270923578600461
H 5.337778400579515 6.469554846314024 2.8816546911609815 -0.35215386362016454
H 3.829201037194129 5.753591106077514 3.0244982633691304 -0.36857993038267145
O 1.2931368181118048 3.9433264468390803 1.805090895408216 0.7031228151277629
H 1.536144458958508 4.84358519241049 1.9137624418819554 -0.3600425312394918
H 2.0633674719749155 3.412972466598654 1.476116578727672 -0.34475172791632414
O 7.591333974961294 1.997009013194055 3.343464059463031 0.7166891399441573
H 7.372747387782219 2.743498664115202 3.849431998554006 -0.34363786521224526
H 7.984928118396098 2.2057614643715855 2.5043126061754846 -0.3700148893964278
O 4.697659070383557 3.743168086490687 5.5933901533006845 0.6874341834585396
H 5.565000267263289 4.148965596696024 5.814418901447776 -0.3607065683717966
H 4.086715806776454 3.2943658758072596 6.421452740325871 -0.3427883754265111
24

O 4.109407262281568 2.317592485918074 3.3350541948516614 0.7062451794752331
H 4.552199625113321 2.605176050359334 4.06634482970221 -0.38878138001709706
H 4.562822704617855 2.688761405575716 2.543346310629704 -0.34868199210036466
O 2.361853092521498 0.8454703317718002 2.1646520691074778 0.7677602634657803
H 3.018162205350424 1.2967367653609772 2.712855395096383 -0.38941361346012504
H 2.746839216391258 0.05976056773028909 1.7906857222532597 -0.34693434139672574
O 2.1092590382263205 0.9765401787427916 5.326985866109197 0.7334292059961331
H 1.5266733942854995 0.9571919015291211 6.100187875308135 -0.36019665776052223
H 2.0388539188156476 1.6224235203552462 4.616738572762305 -0.38943030425666825
O 1.928717042997049 6.740828937910889 3.632079063726854 0.7578056929183898
H 1.642933079650752 7.405535267926963 3.129048449308341 -0.37779497405945395
H 2.251966038322681 7.2271680813562496 4.4560493351088075 -0.3561954600222318
O 4.697162378339529 5.805905345413655 2.556819505706728 0.7278016832010612
H 5.344076828521237 6.474560372990705 2.8767802031647776 -0.3515651720880941
H 3.8312139020945972 5.7537629576567815 3.0194925239143036 -0.37008386233270596
O 1.2949761396396349 3.9428420498194976 1.8072063593998358 0.7047625355531304
H 1.5333016646887256 4.847471116085534 1.9156494516200255 -0.36039931972353634
H 2.056923495878518 3.409293569490867 1.4781378521927073 -0.3458691869392613
O 7.591607875653358 1.9980366111901466 3.3426953726709665 0.7170726945435064
H 7.3715704591220375 2.748647859229491 3.861508883571998 -0.3431901475249426
H 7.9818447048884575 2.201050518861151 2.5059693606468545 -0.370999690982169
O 4.697619186690343 3.7420227540128472 5.593488394449509 0.6894925720424796
H 5.564833991896945 4.145421769104647 5.808615858218248 -0.36115362095266623
H 4.085824086168211 3.2953702892710446 6.417019725730009 -0.34368010357912593
24

O 4.109045612181269 2.317054784081386 3.333407537116307 0.7086501709522144
H 4.546063728497193 2.602464053080438 4.064050681277951 -0.38850883330541364
H 4.557011430337808 2.692626420022764 2.545157854216177 -0.3489093829867027
O 2.3629773980042197 0.8470381228353233 2.166103908478816 0.7646946762209901
H 3.008308499055136 1.2958391885676968 2.705503335528491 -0.3904437102403855
H 2.7508188864347596 0.06376390541494528 1.7917324061474582 -0.3475505140766051
O 2.110080923390538 0.9771911338699381 5.327168290132125 0.7334092988358278
H 1.526195365048191 0.9547459627365488 6.098072775638431 -0.3601552611448776
H 2.037962303669576 1.6258791918391609 4.613498099615072 -0.389078348738814
O 1.9290426172607604 6.740053597937243 3.6308469506505383 0.7584543269357995
H 1.6371277650834537 7.421919802569882 3.1177759303463985 -0.37668788785034424
H 2.251123732123429 7.221114788021904 4.459607550942319 -0.3562703407302866
O 4.695212394126218 5.8044183218999725 2.558019476591814 0.7284887898499173
H 5.349710303721143 6.479165519819457 2.871891614919138 -0.3509870374188425
H 3.83369124605139 5.754257510929124 3.0144625712044837 -0.3715576937476377
O 1.2968300378548638 3.9422820658062516 1.8092951450092958 0.7064783528731577
H 1.530734756476097 4.852068379697595 1.9177005102074196 -0.3607238996832346
H 2.049921852135825 3.4060570443915053 1.4805045994066701 -0.34711230878170984
O 7.591866203351872 1.9989998758411065 3.341942661760437 0.717321848173974
H 7.370335788103966 2.754503080382984 3.873790417434372 -0.3426230740172542
H 7.979114392180797 2.1967039670041153 2.5072000854915424 -0.3719488942815877
O 4.69749042365887 3.740809211349512 5.593700961638964 0.6918263531334736
H 5.564221313717275 4.141636234165461 5.803102848382169 -0.3616224453850191
H 4.08685142912248 3.2976927477299105 6.410513203791566 -0.3451441845865867
24

O 4.108639220261698 2.3164876091996938 3.3315768359887974 0.7111701173723985
H 4.5412333905799915 2.600741763466557 4.064252811744553 -0.3881686605206158
H 4.550897892873675 2.6962760859438006 2.547542524041188 -0.34931846625036
O 2.3640488284925936 0.8485990868749101 2.167514097892398 0.7614660936757751
H 2.998808671854985 1.2952130004150793 2.6985727341284607 -0.3915111182323767
H 2.755014848750891 0.06750483709360544 1.7926276202938227 -0.348171004538263
O 2.1109297812310355 0.9778139491670138 5.327360365103676 0.7332955448757745
H 1.5256541682395648 0.9526442238487497 6.095537404212756 -0.3600364326677773
H 2.0367392450972477 1.6293515376321523 4.610507879327661 -0.388587458956404
O 1.929453131086023 6.73917622906101 3.62977647454268 0.7592537684791554
H 1.6303666631766671 7.440302469284532 3.1048885979548757 -0.37521390227802387
H 2.2498962092148362 7.214529397928537 4.462311383627105 -0.35647483709991434
O 4.6932873387934295 5.802946996368396 2.559219102287112 0.7291590148813034
H 5.3545329338351095 6.483234307617029 2.8669375943708735 -0.3504551336017372
H 3.836457818538603 5.755075103386792 3.0095151965898332 -0.37296288602536776
O 1.2986914933878237 3.9416596705953006 1.8113618928262725 0.7082525103183688
H 1.5284242591206507 4.857226069514499 1.9198919159250776 -0.3610309922837611
H 2.0424960515439774 3.4032050463566916 1.483167120316719 -0.3484494220182327
O 7.5920982386055735 1.9999157161421866 3.3412306349807883 0.7174509281209169
H 7.369150102507453 2.7607345849691565 3.8860247741629177 -0.3419714021299135
H 7.976800178271561 2.192781496201813 2.507864213331059 -0.3728403230327846
O 4.69727048825643 3.7395274762708106 5.5940228364347995 0.694386371361988
H 5.563219667164694 4.137636052799727 5.797903960063353 -0.3621064127510103
H 4.089775717696048 3.301306788283097 6.4019903791414645 -0.34713589669915024
24

O 4.108183652549848 2.3158873654098584 3.3295662720699926 0.7137415327570622
H 4.537718349426002 2.6000215114869802 4.066978129923078 -0.3877748869894626
H 4.5445434847002275 2.699756696460342 2.5504083408998928 -0.34991087268070953
O 2.3650478491025204 0.850138525015676 2.168866224885999 0.7581132029399813
H 2.9899672796505343 1.2950764930450895 2.6923214666161286 -0.3925937187174242
H 2.7594289452435463 0.07099223999939473 1.7933702150695805 -0.348786080846472
O 2.111806583569399 0.978414773892375 5.327553528254813 0.7330810241329515
H 1.525021048876449 0.9508864394722597 6.092617488290758 -0.3598409609800661
H 2.0351972317791587 1.6327450749018104 4.607869465220119 -0.3879695998868802
O 1.9299257054127732 6.738243461214992 3.628827916694837 0.7602131574877342
H 1.6230036807039039 7.459913470571984 3.0910070143402506 -0.37338755143033875
H 2.2482926432637544 7.207444312850693 4.464170941316563 -0.3567860401109537
O 4.691407197832423 5.801498652626817 2.5604138598228263 0.7298184450993555
H 5.358420105106778 6.486651637934945 2.861878409862981 -0.3500019215724399
H 3.839323248093095 5.756214971775862 3.0047618455333462 -0.3742650818787636
O 1.3005525954516766 3.9409904231690955 1.8134119718685788 0.7100696725863309
H 1.5263461997762882 4.8627717400227 1.9221981104340835 -0.36133462764276403
H 2.0347981299365103 3.4006647498660745 1.48606614650133 -0.34985155413894864
O 7.592294394473531 2.0008002743242286 3.3405820432587636 0.7174772294199574
H 7.368113461159101 2.767032859606206 3.897967931637532 -0.3412709620586706
H 7.9749540364483025 2.1893349932423045 2.5078444112498053 -0.37365428406443013
O 4.6969583207718255 3.738178392440515 5.594447307281992 0.6970912634942033
H 5.561891489434305 4.133450756958575 5.7930409141333685 -0.36259578534583625
H 4.094550477533852 3.3061693518885127 6.391536813037988 -0.3495815995734266
24

O 4.107678542307131 2.315252773095291 3.3273895651760768 0.7163002310135758
H 4.535451461070947 2.6002668332126246 4.0721242340827635 -0.3873355220862267
H 4.538021254156496 2.7031270048255047 2.5536415289027112 -0.35067889498090343
O 2.3659553426858424 0.8516409709787647 2.170143712385433 0.7547007854313841
H 2.9820859278278067 1.2956508966072298 2.6870057873498543 -0.3936788179355638
H 2.7640594489804196 0.07424446006112115 1.7939632269547625 -0.34939223774530126
O 2.112712516180733 0.9789994579923156 5.327739441443944 0.7327550418142081
H 1.5242632727381682 0.9494707540493229 6.089354705060251 -0.3595671019431149
H 2.0333492373689577 1.6359715143851568 4.605675175695396 -0.3872382672808157
O 1.9304389591595288 6.737296764010645 3.6279638353213177 0.7613622254884409
H 1.6153615298638282 7.480052896926068 3.07669448755945 -0.37126715625796336
H 2.2463302693723413 7.199903373686186 4.465217571942512 -0.3571791415646588
O 4.689591100554327 5.80007923609199 2.561598450935903 0.7304756810562201
H 5.361269502099279 6.489324098218901 2.8566853816293354 -0.3496554473920477
H 3.8420882310356506 5.757675863814215 3.0003152249902496 -0.37543712413664476
O 1.3024045927332502 3.9402916241662234 1.8154513414592057 0.7119120221641817
H 1.5244744734263749 4.868520104583267 1.9245926628903556 -0.36165183246367316
H 2.0269954166711726 3.398348435975109 1.489134092294628 -0.35128405460409895
O 7.592446641206024 2.0016683124165784 3.340016590369172 0.7174206426448226
H 7.367315774613547 2.773119920390633 3.909393317138127 -0.3405564388631265
H 7.973613671684184 2.1864070069611854 2.5070542712512087 -0.37437527779390845
O 4.696554471875004 3.7367638644490793 5.594965620408687 0.6998351359503165
H 5.560302744876155 4.129111623692807 5.788532725978067 -0.36307357851206234
H 4.101100231933913 3.312217715577301 6.379272332160542 -0.35239087200300956
24

O 4.107127173418085 2.314584643326388 3.3250691897376554 0.7187818041937932
H 4.534297551801625 2.6013971752852685 4.079469448305839 -0.386856177764449
H 4.531414189202202 2.706457523531638 2.557109128406101 -0.35160554617575257
O 2.3667538295775667 0.8530913194787915 2.1713306708653124 0.7513260725357549
H 2.975444735464501 1.2971469713450003 2.6828650873551707 -0.39476045078250455
H 2.7689014844772495 0.07728765737691819 1.7944133804974067 -0.3499920146930331
O 2.1136489276563935 0.9795734029876955 5.327910242396097 0.7323070773501763
H 1.5233452139612325 0.9483937199891433 6.085795179784886 -0.3592148725552683
H 2.03120843637342 1.6389519190147501 4.604005653092233 -0.386406469236359
O 1.9309737961426274 6.736370794436017 3.6271504122066442 0.7627360101263632
H 1.6077185087884442 7.500115276055537 3.0624390937658243 -0.36894611587304926
H 2.2440335556417415 7.1919603887878045 4.465502492489093 -0.35762929345578354
O 4.687856797016049 5.7986932544414875 2.5627670659622686 0.7311396233974294
H 5.36300226392954 6.491180955435483 2.8513404429606477 -0.34943734618124966
H 3.844551598973274 5.759456665838404 2.9962855694476134 -0.3764590503445342
O 1.3042380325068175 3.93958161566422 1.8174863809760684 0.7137594332669657
H 1.5227829633298609 4.874281610222174 1.9270491896638935 -0.36200183147340825
H 2.01926617754075 3.396155990145965 1.4922968081171686 -0.3527077311957256
O 7.5925487801248535 2.002532943222548 3.3395501681331488 0.7173030207905327
H 7.3668350225192825 2.7787548411334027 3.920097700549488 -0.33986139760436695
H 7.972799934069616 2.1840295182437552 2.505444610224246 -0.3749912685152217
O 4.6960615696046375 3.7352871500716085 5.595566529153104 0.7024915130589469
H 5.55852122314754 4.124650855927427 5.784395432110221 -0.36351848807386045
H 4.109314736300783 3.3193656826745683 6.3653584163876 -0.35545650079542257
24

O 4.1065356789781715 2.313885409711694 3.322634733166159 0.7211204971124217
H 4.534068990974209 2.603297099120052 4.088695152786559 -0.3863425016060935
H 4.524812782721798 2.709829093691298 2.560662907769971 -0.35266492608417466
O 2.36742885689468 0.8544759874604195 2.172413189130705 0.7481094883012196
H 2.9702790455320334 1.2997474739546733 2.68010247864862 -0.3958376119865611
H 2.773947557636324 0.08015385309822744 1.7947305108944251 -0.35058447722796604
O 2.114617266253845 0.980141443479326 5.328058769058246 0.7317306651324735
H 1.522229619958687 0.9476503349179201 6.081987784177664 -0.35878813126000575
H 2.0287879301730163 1.641618386407598 4.602927964176582 -0.38548743534769925
O 1.931513755026809 6.735492760539563 3.6263580256836985 0.7643688913561715
H 1.6003040770169703 7.5196017770101315 3.0486452170653795 -0.3665429796376294
H 2.2414334544203993 7.183677739485868 4.465095555856046 -0.35811663776565683
O 4.68622003697944 5.797343707374453 2.5639137147339217 0.7318164287888322
H 5.363563718813113 6.492174769251178 2.8458355635564936 -0.3493617890888645
H 3.846519413565968 5.761557049719916 2.992775993343886 -0.3773163474902248
O 1.3060429697016847 3.938879072021455 1.8195236971530353 0.7155938326712765
H 1.5212473549633185 4.879870361393666 1.9295421847422423 -0.36240087002613697
H 2.0117945268269373 3.393978167300083 1.495475737642822 -0.35408840472963565
O 7.592596603471747 2.0034054760581195 3.3391943454955864 0.7171479592313452
H 7.366736358530274 2.7837367607289742 3.9299050683079413 -0.3392187037632649
H 7.972515149975208 2.182223401117984 2.5030077535022035 -0.37549300988883183
O 4.695484940723146 3.7337532538489917 5.596235649859729 0.7049162768825068
H 5.556615004413742 4.12010084571956 5.7806418259954535 -0.3639116340458197
H 4.119040708194911 3.3274981251020033 6.350008666491208 -0.3586485795277583
24

O 4.105912036908071 2.3131585303730864 3.3201206647040835 0.7232469401482244
H 4.53454500044177 2.605828176906612 4.09941614129346 -0.3858021414070476
H 4.518311990479206 2.7133306976989586 2.564144535655938 -0.3538234764857241
O 2.367970245649669 0.855784021434782 2.1733805623105935 0.7451864087114226
H 2.9667581878886264 1.3035902896512988 2.678866831800486 -0.3969119635274797
H 2.7791881365180093 0.08287890316288725 1.7949268966067677 -0.3511594757314347
O 2.1156190073672456 0.9807077551653193 5.328178755708447 0.7310227637039008
H 1.5208790294023449 0.9472341197066809 6.077982309485699 -0.35829077138993703
H 2.0261004830459437 1.6439152719465577 4.602494183347946 -0.38449681597712004
O 1.9320448103361265 6.734683082854415 3.6255608670475468 0.7662837798108981
H 1.5933034241661568 7.538112171002572 3.035639979197733 -0.3641887330291105
H 2.2385666772730346 7.1751250178051835 4.464084011230356 -0.35862610246404214
O 4.684693895957265 5.796032025295968 2.565032579791703 0.7325100456365012
H 5.362923929529757 6.492281869219293 2.840172158103768 -0.34943657377709814
H 3.8478150407313665 5.763978018967641 2.989877499190988 -0.37799943770667876
O 1.3078093187671547 3.9382022875305713 1.8215698870999573 0.7173988656668042
H 1.5198464028613803 4.885110653860774 1.9320476810268201 -0.36285930304209146
H 2.004763584013469 3.3917013972589385 1.4985909753910498 -0.35539953035701066
O 7.592587880435817 2.0042955277922303 3.338956276179929 0.7169799873206091
H 7.367072603550834 2.787903099175119 3.938666936442384 -0.33865905086848236
H 7.972742832269157 2.1809984364628274 2.4997787006136463 -0.3758746691632001
O 4.694833358829271 3.732169411173959 5.596954624177654 0.7069637842601022
H 5.554650492098926 4.1154932117924465 5.777281541184799 -0.36424014712211605
H 4.130071870002271 3.3364643753278824 6.333502013374239 -0.36182438320995614
24

O 4.105265084436635 2.3124079115668983 3.3175638024087886 0.7250891740931162
H 4.535491531282146 2.608841622092206 4.111213922627994 -0.38524820070254195
H 4.512007406032509 2.7170561783163487 2.567392565808386 -0.355042793606991
O 2.368373223932967 0.8570083408762121 2.1742260835793177 0.7427167682805937
H 2.9649690209049533 1.3087543439582474 2.679238541090251 -0.3979829408044935
H 2.7846122267423543 0.08550057001034003 1.79501659765579 -0.3517013210477852
O 2.1166555736494543 0.9812757836559162 5.328265005687026 0.7301810794576757
H 1.5192572882270623 0.9471372162536302 6.073827573154721 -0.3577232122780494
H 2.023158275823796 1.6458000848277816 4.60274037489558 -0.38345250343951176
O 1.932555054619109 6.733956355273752 3.6247363633068463 0.768463871817558
H 1.5868610430363066 7.555327499619977 3.0236860807315225 -0.36201229228989085
H 2.2354749277479935 7.166377641902748 4.46257106923194 -0.3591427588955035
O 4.68328810085485 5.794758014593311 2.5661183564306653 0.7332233953415319
H 5.361078220244048 6.491502879911036 2.834360555196408 -0.3496638858639747
H 3.848289247174063 5.766722259932421 2.987664129131575 -0.3785039977156801
O 1.3095272931160997 3.93756846051447 1.8236312709332456 0.7191571171642068
H 1.5185626782575825 4.889842166371949 1.9345438464580207 -0.36338393858803475
H 1.9983475565908313 3.3892137250679792 1.5015649558621762 -0.35661725694400503
O 7.592522263961213 2.005211072063527 3.3388387943796825 0.7168242163754897
H 7.367884686171655 2.791128135170728 3.9462626692883713 -0.33820934860108043
H 7.973448698305504 2.180353925290086 2.49583328804291 -0.37613505255729596
O 4.6941198296934425 3.7305455821988964 5.597700222566069 0.708503128469355
H 5.552691044519336 4.110858152407611 5.774320936450645 -0.3644939346132847
H 4.142137756398867 3.3460710009737986 6.316197107592892 -0.36484531305139434
24

O 4.10460376007883 2.311637492548157 3.3150009417487305 0.726572813743849
H 4.536677896800995 2.6121890667251626 4.123666175750125 -0.384701330595577
H 4.5059907032039686 2.7210999668488602 2.5702505851671424 -0.35628188700845764
O 2.3686382897509644 0.8581453163734489 2.1749482770672683 0.740811758977229
H 2.9649076659145455 1.3152510714421284 2.681221889086697 -0.3990420917256513
H 2.7902078192837974 0.08805687178400429 1.7950147857830485 -0.3521943644360028
O 2.117728250675592 0.9818481897179456 5.328313544240999 0.7292058780865194
H 1.5173311012256856 0.9473505044582871 6.0695695522892885 -0.3570848429982735
H 2.019972694882569 1.6472440813525895 4.603686028401053 -0.3823732951091495
O 1.9330343869201398 6.733322318329227 3.6238646299349746 0.7709026143871329
H 1.5810966879310597 7.571012954457336 3.012981131657478 -0.3601162169554132
H 2.232204010841834 7.15751537276946 4.460674039215874 -0.35965245317388306
O 4.682008424917324 5.79351980806034 2.567166541667146 0.7339573373477795
H 5.358047764281449 6.489863387827753 2.8284195522161926 -0.35004036335674493
H 3.8478291241969567 5.769794228889922 2.9861888344724554 -0.3788297755291069
O 1.3111878887321615 3.9369929952440486 1.8257136105968506 0.7208502026729893
H 1.5173832000828866 4.893924545221005 1.937011338844954 -0.36397930291073244
H 1.9927034130872625 3.3864115056359156 1.5043264824316362 -0.3577184737278206
O 7.592401117791787 2.006158481959204 3.338840706868063 0.7167060617943148
H 7.369202245876929 2.7933212194713275 3.952599257546157 -0.33789242571726263
H 7.974582777474626 2.1802797755509724 2.4912837929400764 -0.3762776279994302
O 4.693362415932214 3.7288949700096987 5.59844336313089 0.7094352886503819
H 5.550795420210567 4.106223710892856 5.771763299499226 -0.36466659093198805
H 4.154892114511479 3.356074431319294 6.298547744625712 -0.36759091348468953
24

O 4.103936703429282 2.310851084614877 3.3124669908453575 0.7276303037045735
H 4.537887748506825 2.615729815938743 4.136367477050975 -0.384193879399244
H 4.500344690431342 2.7255520531759596 2.57257596569844 -0.3575025107245392
O 2.3687717716081185 0.8591960942016512 2.1755501793320264 0.7396419954013904
H 2.9664810179001786 1.3230230234431406 2.6847454572382907 -0.40007473030927454
H 2.7959622917356173 0.09058489128970094 1.794937083242058 -0.3526256248160886
O 2.118838103051172 0.9824268081999127 5.328321749503524 0.7281248955631636
H 1.5150715652577798 0.9478637217161986 6.0652496220067516 -0.35640263102513303
H 2.0165541332093007 1.6482326061338508 4.605333743592182 -0.3812744202088495
O 1.9334741752703697 6.73278686280656 3.6229278930695754 0.7734888265522226
H 1.576100870160851 7.584985429979889 3.0036801661617356 -0.3585754234738884
H 2.228803105587828 7.148621012524307 4.458522780534133 -0.3601329290390184
O 4.680856182341285 5.792313826457004 2.5681736624755307 0.734733421572594
H 5.3538802126590594 6.487414739404142 2.8223760400507203 -0.35055522485845403
H 3.8463654118603565 5.773199953381537 2.9854802367776156 -0.3790052057280061
O 1.3127833420804738 3.9364888867837258 1.8278218488144835 0.7224612348892439
H 1.5162999044773904 4.897240542833734 1.9394335789132153 -0.36464969342433684
H 1.9879633052356072 3.383205943244055 1.5068145502683876 -0.3586820545596586
O 7.592227285754112 2.007142599541845 3.3389572386041233 0.7166499270683362
H 7.371044452663278 2.794424331971085 3.957610378430523 -0.3377293948151079
H 7.976082208304816 2.1807578207889473 2.4862728312300275 -0.37630693951911
O 4.692585022419485 3.727234502139422 5.599148126437515 0.7097063454897594
H 5.549016703752389 4.101615250258022 5.769609169635407 -0.3647618419610166
H 4.167901553721605 3.366173984824009 6.2811182055935 -0.36996444637952464
24

O 4.103271979863413 2.310052302611805 3.3099933315636125 0.7281951124586672
H 4.538927593112757 2.6193366793329256 4.148946552587039 -0.3837607641633668
H 4.495138826726494 2.730492793290061 2.5742483470404443 -0.35866763683087477
O 2.3687848004762184 0.8601657059139113 2.176039244391065 0.7392898295706714
H 2.9695179119103785 1.3319500258067003 2.689670529291057 -0.40105563629516827
H 2.8018625530391774 0.0931198267198416 1.7947992053445476 -0.3529426576835688
O 2.1199858954794535 0.9830126248663106 5.328288458622881 0.7268918889892815
H 1.5124557874688098 0.9486653708762316 6.060902764378951 -0.35562193872603565
H 2.012911783381952 1.6487653365947716 4.607669073712312 -0.38017620351780435
O 1.933867037303623 6.732352844197213 3.621910142632132 0.7761340967222843
H 1.571945222400919 7.597111634091984 2.9958979033994138 -0.35744861041325693
H 2.2253235254918255 7.139778597311105 4.456256690714742 -0.360573180898927
O 4.679827880470829 5.791134760756165 2.569137424131131 0.7354940840602215
H 5.34865026913178 6.484234853501643 2.816264650911455 -0.3511938752612537
H 3.843877290277688 5.776946703731374 2.985540790933117 -0.378983759343263
O 1.3143075914198605 3.936066154025171 1.8299598522970772 0.7239751195475499
H 1.515309643484057 4.899698173610993 1.9417969546966993 -0.36538957050458964
H 1.9842271754925285 3.3795298501327 1.5089821918215296 -0.35949787177910175
O 7.592004827542369 2.008166761470977 3.339180568306531 0.7166789409111776
H 7.373420718538677 2.7944101029368578 3.9612556112721595 -0.3377373559148549
H 7.97787468525403 2.1817633593923933 2.480965646073896 -0.3762307366424743
O 4.691817393695191 3.725584764033027 5.599771709041392 0.7092994798996965
H 5.547401847670677 4.097055218371539 5.767856807948359 -0.3647969249872215
H 4.180646088860671 3.3760133172175086 6.26458358343827 -0.3718818291977979
24

O 4.102617018415921 2.3092446497074532 3.3076066705778038 0.7282091230542314
H 4.539631209162643 2.6228990229031917 4.161076375396351 -0.3834366334611502
H 4.490425212548054 2.7359877571994766 2.575177251776366 -0.3597444773168449
O 2.368692262908456 0.8610625007977875 2.176426368834245 0.7399053931074677
H 2.9737875801540796 1.3418615106757088 2.6958057055777176 -0.40196013314455115
H 2.8078950928798285 0.09569432592552791 1.7946168522254557 -0.35318311364685273
O 2.121172031135275 0.9836057546702551 5.328214043335883 0.725553822812268
H 1.5094678050953325 0.9497431961244934 6.056556686234901 -0.35478256332497116
H 2.009053407080319 1.6488562896360763 4.6106605935313505 -0.3790943460626246
O 1.9342067108866117 6.73202075853207 3.620796987597914 0.7787363349367751
H 1.5686846451322003 7.607297415460657 2.9897164002955066 -0.35677427910369697
H 2.2218172376684646 7.1310711946059175 4.454020781958998 -0.360961106654178
O 4.6789151108012454 5.789975577606183 2.5700567467878814 0.7362539860520956
H 5.342459861695872 6.480428770159839 2.8101273482559037 -0.3519319129502604
H 3.8403940230468327 5.78104193320198 2.9863462923089834 -0.37880221569742667
O 1.315756653219436 3.9357313855726472 1.8321301995550532 0.7253789870506309
H 1.5144141216436353 4.901232078427934 1.9440909167815057 -0.3661885402290187
H 1.9815568409769104 3.3753434893850773 1.5107997353848255 -0.3601622973720846
O 7.591738750254354 2.0092327767507165 3.339500382670113 0.7168136490879657
H 7.376331226032936 2.793280528082906 3.963520038254289 -0.3379277357764231
H 7.979882146900051 2.1832667409171913 2.4755417049333985 -0.37606037393250513
O 4.691094445575159 3.723969497940348 5.600265147275451 0.7083497177437499
H 5.545991791245348 4.09256315930261 5.766502820924682 -0.3647980933110363
H 4.192529646667937 3.385188792496686 6.249717816804298 -0.3733931918615657
24

O 4.1019787845528075 2.3084317725317294 3.3053284861923564 0.7276356345862642
H 4.53985943942115 2.626321712327989 4.17247453585975 -0.38325979274824407
H 4.4862352739741 2.7420822506810767 2.575308543770829 -0.36070471662900194
O 2.368511421739039 0.8618971494980195 2.1767247883950236 0.7414474960473685
H 2.9790220756964754 1.3525527785641134 2.70292506849044 -0.40273895796949843
H 2.8140459752039604 0.09833873893309365 1.7944052885669042 -0.3532564778739057
O 2.1223965000671448 0.9842054453635358 5.328100442300501 0.7241253846416755
H 1.5060998367877174 0.9510840428643054 6.052230659829204 -0.35388500910991894
H 2.004985112228877 1.6485333143626166 4.614260071464482 -0.37804847470150627
O 1.9344879300385889 6.731789493280979 3.619575564817148 0.7811843368969502
H 1.566361252959621 7.615479573529818 2.9851911366410353 -0.35656680684477404
H 2.21833512787088 7.122578843171294 4.4519607242364625 -0.3612838723166196
O 4.678104709926347 5.788827560559383 2.570931693368751 0.7369968530526465
H 5.335438083539439 6.476129048030324 2.8040129648335435 -0.35274283410711427
H 3.8359925265203034 5.785492472155203 2.9878476050258618 -0.3784691875376187
O 1.3171288461488875 3.9354874421104817 1.834334044676032 0.7266585524190337
H 1.51361976105146 4.901804262039796 1.9463080048752424 -0.3670332909309244
H 1.9799725655148044 3.3706385860729515 1.512256933669224 -0.3606723498810156
O 7.591434751839415 2.0103408780991163 3.3399044104703512 0.7170695667495119
H 7.379767344968281 2.791066177719328 3.9644141082721642 -0.338304752274853
H 7.982024410812743 2.1852348790513094 2.470186336238571 -0.3758099446073295
O 4.690453927138087 3.722414042054135 5.600576233777412 0.70691265543121
H 5.544822728962052 4.088156263048106 5.765542732509396 -0.36480508984733184
H 4.202915960853824 3.3932746807493586 6.237349063197667 -0.3744489224450611
24

O 4.101363928676634 2.307617686412496 3.303174746038179 0.7264536862690103
H 4.539499288428514 2.6295249321114382 4.182903661564812 -0.38326111306751076
H 4.482577834739533 2.748798748991871 2.574628496221805 -0.3615278544466568
O 2.368260501149327 0.8626815637343168 2.176948906585883 0.7439823693968932
H 2.984939250282382 1.3638025512217373 2.7107871614791246 -0.4033785621537831
H 2.8203008051556084 0.10108091114128435 1.7941792709759024 -0.35316638530275046
O 2.123658847221024 0.9848100949112675 5.327951158262847 0.7226124443179258
H 1.5023529860161784 0.9526738938513812 6.047935034669586 -0.35292479286774714
H 2.000711229946172 1.647838872346888 4.618403034241672 -0.3770516795474045
O 1.9347063805558735 6.731656809148548 3.6182346088978194 0.7833381505074619
H 1.5650067065857451 7.621619444107172 2.982355815426543 -0.3568136309008628
H 2.2149250338712743 7.114374741383368 4.450217208093298 -0.36152616318991326
O 4.677379124362428 5.787680338413648 2.5717632855343044 0.7376975184107093
H 5.327741181331909 6.471496303611 2.797976829288635 -0.3535960009644835
H 3.8307916096636796 5.7903035177622195 2.9899739202626514 -0.3779897423261641
O 1.3184248371821647 3.9353333343246293 1.836571068969362 0.7278030410068916
H 1.5129375095731443 4.901404383491672 1.948443858512524 -0.36791364891344547
H 1.979452551141533 3.3654399701059283 1.5133637004979021 -0.3610246193721314
O 7.5910989965156555 2.0114896521627386 3.3403788839618245 0.7174532120778616
H 7.3837119283977835 2.7878259544830852 3.9639738169547694 -0.3388652112442353
H 7.984222390164843 2.1876325551917115 2.4650832400832656 -0.37549251858344557
O 4.689933367485211 3.720943267519724 5.600653141439381 0.7051799773065028
H 5.54392756766334 4.0838499567206075 5.764971705317709 -0.36485197103120914
H 4.211175482151843 3.3998555837490065 6.228300913563009 -0.3751365053815461
24

O 4.100778931206851 2.3068069740081216 3.3011560146737904 0.724670180040496
H 4.5384615319286175 2.632443172960527 4.19216894691722 -0.38346391853887174
H 4.479438819956267 2.7561341408058784 2.573164911607513 -0.36220154332851806
O 2.367957691745472 0.8634280996063657 2.177113394362294 0.7475081615400767
H 2.9912596424231936 1.3753864509872837 2.719149083055042 -0.4038568358918747
H 2.826644607531186 0.10394625552738851 1.7939529923465365 -0.35290985585192225
O 2.1249581586059403 0.9854172918351879 5.327771203025333 0.721028451594705
H 1.4982375584159588 0.9544978936144684 6.04367124340505 -0.3519079872471733
H 1.9962341655192632 1.6468284916889107 4.623009826666956 -0.3761116821616235
O 1.934858696150725 6.731619827012839 3.6167646102140787 0.7850740060360382
H 1.564643807742847 7.625697916110471 2.9812260624029325 -0.3574927757950793
H 2.211629862915058 7.1065234814356995 4.448919968268694 -0.36167541767848344
O 4.676717042324995 5.786522042020866 2.572553307788805 0.738328643538243
H 5.319550336490635 6.466717547179511 2.7920796537048465 -0.35445526514047143
H 3.8249441107784152 5.795477718952208 2.9926369490901896 -0.37737407263036615
O 1.3196475014635878 3.9352642774470485 1.838839528533268 0.728805703225994
H 1.5123826480193507 4.900049741996886 1.950497208769789 -0.3688157927743174
H 1.9799353958429842 3.3598046988856174 1.5141493405906443 -0.36122247899728765
O 7.5907379419645045 2.012675959594398 3.3409088851488913 0.7179621897878985
H 7.388139532795266 2.7836473067734455 3.9622611532727228 -0.33959674721856914
H 7.986400546920072 2.1904234449589577 2.460408560803392 -0.37512200525320116
O 4.689564086092378 3.71957757805085 5.600451919892429 0.7033156025767158
H 5.543338104865986 4.079658813092608 5.764785137026917 -0.3649742361524274
H 4.216778334289841 3.4045886425510017 6.223272459129243 -0.3755123236799611
24

O 4.100230142713835 2.3060048700622144 3.2992777494206895 0.7223169916613665
H 4.536678676767439 2.635024579536944 4.200116011670864 -0.3838785170486827
H 4.47678260885252 2.764059394129141 2.5709852463938137 -0.36271938167880335
O 2.3676202612529855 0.8641488105603173 2.1772323833112806 0.7519570357289296
H 2.9977212717899313 1.3870893385788665 2.7277791560957865 -0.4041575897850307
H 2.8330617189229907 0.10695789565853714 1.7937400418594218 -0.3524735005579488
O 2.1262930686422807 0.98602388700203 5.3275669734276345 0.7193958895431125
H 1.4937730246843415 0.9565403369577027 6.039432251757715 -0.350850217628659
H 1.9915543182378155 1.6455692789561152 4.627987109641503 -0.3752338478026047
O 1.934942492413521 6.7316754009359885 3.615158071761736 0.7863080885260976
H 1.5652874662144973 7.627711759434048 2.9818021754832005 -0.35858681311037677
H 2.2084856056320725 7.099078772916476 4.44818123109192 -0.3617247744682902
O 4.676094250511682 5.785339576366788 2.573304102990358 0.7388622880401459
H 5.311068127624986 6.462002567547932 2.7863858719141423 -0.35527988640436214
H 3.8186274872445956 5.801014414241602 2.9957357857296234 -0.37663872156458955
O 1.320801576757664 3.9352719234529614 1.8411363926048436 0.7296620817845383
H 1.5119746070078828 4.897784927668304 1.9524698369361195 -0.3697188730912697
H 1.981325169898076 3.3538187303047637 1.5146604070219583 -0.36127784078714464
O 7.5903581947943755 2.013894812064765 3.341478617064108 0.7185836603520144
H 7.393016491073058 2.7786472106186304 3.959365081456425 -0.3404753533275766
H 7.988489096789853 2.1935710325838076 2.4563255518993055 -0.3747140232951739
O 4.68936690081409 3.7183301443193213 5.599941908420258 0.7014706162218769
H 5.543086730032011 4.075597227049807 5.764979201117297 -0.36519514521770113
H 4.219360669106589 3.4072463132321844 6.222751231437461 -0.37563216608980954
24

O 4.0997237767583705 2.30521726446924 3.2975408481852964 0.7194473179552632
H 4.534102507684323 2.6372291753147903 4.206626779606539 -0.3845000164605106
H 4.474554836122358 2.7725210971183523 2.568191786261719 -0.3630807051466749
O 2.3672639985695607 0.8648549410987454 2.177318944478226 0.7572260220454663
H 3.0040884882610985 1.3987132955104362 2.7364646268447634 -0.40427758739040087
H 2.8395357684698226 0.11013678012780398 1.7935533705079432 -0.35184741928038754
O 2.127661788921432 0.9866261021845497 5.327346074805796 0.7177336838455926
H 1.488987615064287 0.9587846172005474 6.03520345465093 -0.34976505281142967
H 1.9866701263427056 1.6441387803245895 4.633229752005602 -0.37442056840476534
O 1.934956431600568 6.731820360003557 3.613409828983068 0.7869777313815929
H 1.5669449784450336 7.627671920797952 2.9840705085068513 -0.36007327710625003
H 2.2055195482105665 7.092080741114291 4.448089534545424 -0.36166917434310464
O 4.675484636788311 5.784118971721638 2.574018364721877 0.7392720861179845
H 5.302511880357896 6.457578903702611 2.7809616758726596 -0.356032514255992
H 3.8120335709641058 5.8069090851659855 2.9991621088300278 -0.3758010890045078
O 1.3218933009282308 3.935344743081211 1.8434575544862952 0.73037321127595
H 1.511736796316308 4.894681180586466 1.9543665032935338 -0.3706022505484954
H 1.9834984794251695 3.34759153435705 1.5149574710979334 -0.3612073170474065
O 7.589966394193543 2.015139256146088 3.3420716024588 0.7192933622467903
H 7.3983010491594055 2.7729732197210084 3.9554024971777646 -0.34146547251367054
H 7.990425696360477 2.1970393405896345 2.4529804309602734 -0.37428466835156005
O 4.689347359035648 3.7172039389435283 5.599112143519877 0.6997354809201437
H 5.5432071948064685 4.071679700679183 5.765551027344825 -0.3655201648386244
H 4.218799533925511 3.4077634949615723 6.2269118609186505 -0.3755116182850582
24

O 4.099265862505354 2.3044506352184526 3.295942315918452 0.71613333536844
H 4.530701916315026 2.6390292818712338 4.211617875480913 -0.38530875665425623
H 4.472686042418389 2.7814443028708844 2.564915410245752 -0.36329226430938766
O 2.3669028866813604 0.8655565985177806 2.1773847587660464 0.7632070824539028
H 3.0101569003739224 1.4100825904797347 2.7450167612086176 -0.4042263891806984
H 2.8460497829795 0.11350168821584072 1.7934051930314021 -0.3510429419998877
O 2.129062143417363 0.9872196740624194 5.327117045873803 0.7160487773081041
H 1.4839175537786977 0.9612132094366536 6.030963899104886 -0.3486584159207492
H 1.9815782324772455 1.6426226204616408 4.638623506906445 -0.37366877007172916
O 1.9349002933477828 6.732051635647094 3.6115173650856387 0.787025273114953
H 1.5696158213368698 7.625603030202336 2.9880040380271056 -0.3619145033403862
H 2.2027489029433864 7.085554396164008 4.448704429194188 -0.36150270437780263
O 4.674861377441606 5.7828459373554155 2.5746989989089397 0.7395259153530034
H 5.294105621425888 6.453683305521669 2.775872131981497 -0.35667741044277546
H 3.8053585482086865 5.813153067429631 3.002805202820501 -0.37487462578401487
O 1.3229299042969598 3.9354684966293547 1.8457980717011402 0.7309419939536654
H 1.5116963971834374 4.890835297807748 1.9561948403821854 -0.3714481553928921
H 1.9863122071150572 3.341249786338532 1.5151114263747603 -0.3610262879353001
O 7.5895691089618715 2.01640031253891 3.3426708535673053 0.7200555396832695
H 7.403943783912367 2.76680380944118 3.950518513010918 -0.3425219559192024
H 7.992156645669381 2.200793495603307 2.4504993674919517 -0.37384824512632286
O 4.689494332644263 3.7161909213339928 5.597973459172427 0.698136586716716
H 5.543733728397909 4.067920424141667 5.766498654593021 -0.3659258229607557
H 4.215235638105127 3.406249042391861 6.235580512474234 -0.3751372545358467
24

O 4.098862141895149 2.303711901403882 3.294475952750103 0.712454858607195
H 4.526460735349515 2.6404068610555393 4.215035635870625 -0.38627428472163516
H 4.471095866504328 2.790736478747947 2.5613080880432983 -0.3633680587628275
O 2.3665491568326495 0.8662627473769257 2.1774401107876993 0.7697690855257444
H 3.0157520365318318 1.4210435247577713 2.7532700637542478 -0.4040171054096613
H 2.852586348236823 0.11706912726854138 1.7933068682813167 -0.3500882675968502
O 2.130491617687269 0.9878000339605746 5.326889077890219 0.7143453040233985
H 1.4786059297758058 0.9638076714383098 6.026687843918339 -0.3475387066853225
H 1.9762738509643958 1.6411115805215382 4.64404834197398 -0.3729692648866174
O 1.934775040360378 6.732366267390554 3.609481082313027 0.7864189548008049
H 1.5732909535646555 7.621543882161502 2.9935622724437057 -0.3640651669854065
H 2.200179966474843 7.0795088403564295 4.450052547645219 -0.3612215509643355
O 4.674198174254476 5.781506551537298 2.5753490588625687 0.7395938058845526
H 5.286069379386498 6.450550698119836 2.7711777957039114 -0.35718220276806123
H 3.7987941285206825 5.819733531374475 3.0065563440637053 -0.3738728349635567
O 1.323919149224494 3.9356267559536953 1.8481524150666353 0.7313756712502466
H 1.5118840797033526 4.886367924662561 1.9579651916367635 -0.37224007116244806
H 1.9896112151709726 3.3349308367042623 1.5151996741830283 -0.3607533379211568
O 7.589172763563484 2.0176669294254563 3.3432589702033186 0.7208250498789845
H 7.40988813011319 2.760348691679017 3.9448866046099047 -0.3435925951205061
H 7.993637497358667 2.2048001269813113 2.448986770360025 -0.37341666567809206
O 4.689782085164717 3.7152736691804487 5.596556567392019 0.6966430697211494
H 5.544698425074811 4.0643321595124355 5.767820683470581 -0.36636801538531205
H 4.209043411557025 3.402962589625282 6.248267669234904 -0.3744576706803172
24

O 4.09851793875013 2.303008216617513 3.293133078071021 0.7085159272335904
H 4.521375557715185 2.6413492589724727 4.216849156891157 -0.38735941776384464
H 4.469697551849444 2.800292328169503 2.557534562177255 -0.36332869989771344
O 2.3662133284594535 0.8669812064329886 2.17749388123151 0.776753229970417
H 3.0207282281288874 1.4314637237439745 2.76108196588379 -0.403659317467544
H 2.859127791483354 0.12085320755894487 1.7932687893007844 -0.3490363548023797
O 2.131947407184838 0.9883625158510524 5.326671662670847 0.7126338653600044
H 1.4731012673499437 0.9665485898088497 6.0223466496523175 -0.3464242227140415
H 1.970751382796431 1.6396983273713783 4.649382124986455 -0.3723090987326476
O 1.9345828765181403 6.732761286555274 3.6073045314897425 0.785174621073607
H 1.5779515196108804 7.6155495839228955 3.0006900531730327 -0.3664803195377073
H 2.1978079000246002 7.073937275110969 4.4521254998619035 -0.36082665230278776
O 4.673470376555403 5.7800879846349 2.575971741843887 0.7394496735120797
H 5.278608220733681 6.448402453815159 2.766931434703914 -0.3575174126852698
H 3.792520828345808 5.826633642211268 3.0103121102289006 -0.3728148622929186
O 1.3248688610197865 3.93580150132385 1.8505147380151934 0.7316856466678872
H 1.512333625069253 4.881421042307655 1.9596903612720835 -0.3729595927546707
H 1.9932362002628214 3.3287757881645095 1.5153021289219466 -0.3604135482241869
O 7.588783561913077 2.018925957212873 3.3438182403222774 0.7215516443915642
H 7.416071089858927 2.7538487891596906 3.9387083662221345 -0.34462091635250314
H 7.994833600051494 2.20902775091832 2.448523836322507 -0.3730007347432075
O 4.690175345789617 3.714428982617332 5.5949063573309745 0.6952178192840723
H 5.546127223883499 4.060924593063586 5.769515721309963 -0.3667874222813977
H 4.200755062170802 3.3982623395202043 6.26426332749199 -0.37344385494047216
24

O 4.098238019843314 2.302346728522585 3.291903199311813 0.7044362143679617
H 4.515454862887153 2.6418518211399507 4.21705250918618 -0.3885229561075465
H 4.468402262225204 2.809998938142927 2.5537642319825156 -0.3631951302086832
O 2.3659043770495893 0.8677187592379569 2.1775536727855807 0.7838443073935233
H 3.02496467491749 1.4412316703621764 2.7683308239385194 -0.40315614222611074
H 2.8656564268516513 0.12486565152198117 1.7933000744757164 -0.3478330195875843
O 2.1334264607458224 0.988902614002747 5.326474190673429 0.7109563485394499
H 1.467456013953992 0.9694156108552757 6.017910557058343 -0.345360618133434
H 1.9650052486930487 1.6384733321186629 4.654505155316528 -0.37167776577580713
O 1.9343273247049013 6.733233313955581 3.6049945490627597 0.7833498252764646
H 1.5835671455286677 7.607695407923504 3.009315289139759 -0.3691102784351735
H 2.1956171967491156 7.06881786812639 4.454879827902166 -0.3603225370338553
O 4.672656198910753 5.778579415295355 2.5765704547002923 0.7390739219185642
H 5.271898840730977 6.447431444247931 2.7631741646903247 -0.35765856015514474
H 3.7867022716839096 5.833832901831659 3.013977183957079 -0.3717229518970161
O 1.3257865233037247 3.9359737524006335 1.8528791306624515 0.7318843634308496
H 1.5130814245122062 4.876154466505886 1.9613852498288336 -0.37358714871023313
H 1.997030700139631 3.322923097280051 1.5154975687633347 -0.3600349967131897
O 7.588407338147624 2.020162396812941 3.344330972104985 0.7221838580153399
H 7.42242507557767 2.7475717988332624 3.932209574849514 -0.34554996128270055
H 7.995720599973079 2.213447243225721 2.4491671826490204 -0.3726100283236251
O 4.6906341863358305 3.713630870451537 5.593075758668881 0.6937215474854432
H 5.548035389282684 4.05770259138673 5.771581455344582 -0.3671531603607292
H 4.1909872920435145 3.3925559636807407 6.282731064309789 -0.3719551314767062
24

O 4.09802646631561 2.3017343333403475 3.2907745648926414 0.7003253289595839
H 4.508718474765544 2.6419198688034315 4.2156665099350885 -0.3897187867708576
H 4.4671230169393015 2.819740725735966 2.550163982610512 -0.3629876359134696
O 2.365629853293973 0.8684812315086187 2.177625931837474 0.7909101516760584
H 3.028362503412424 1.4502527793307827 2.774913469872718 -0.4025471087324243
H 2.8721549155976263 0.12911527481676402 1.7934087315137346 -0.3465735550948478
O 2.134925510896523 0.9894162659139975 5.3263055362294285 0.7092573109118998
H 1.461724776643193 0.972387597293305 6.013350418560741 -0.3443009374346837
H 1.9590310017884434 1.6375204208857224 4.6593048875650425 -0.3710607156948531
O 1.9340132571737414 6.7337782255153655 3.6025613584018297 0.7810070859360458
H 1.5900937798492174 7.59808238867756 3.019345705198104 -0.37188610760284635
H 2.1935827613500725 7.064115425062197 4.4582390391061795 -0.3597139776820516
O 4.671737793000503 5.7769729405362495 2.5771489027194243 0.7384481650095411
H 5.2660768486467004 6.447787128758953 2.759932007800946 -0.357587010467765
H 3.781481145707371 5.841307577554348 3.0174663623212803 -0.3706157596450613
O 1.3266789710632891 3.936124206039158 1.8552398408776134 0.7319848256437833
H 1.5141655715852913 4.870741125231055 1.9630664031328353 -0.3741100746611835
H 2.0008467424143928 3.3175032444086576 1.5158606299855195 -0.3596407524506765
O 7.588049386825681 2.0213597638035177 3.3447799115731227 0.722670336587848
H 7.428880139871504 2.7418059125312277 3.925634656323545 -0.3463257813761986
H 7.99628492161479 2.2180323076941932 2.4509476940518407 -0.37225039090534917
O 4.691119588137763 3.7128539628348083 5.591118487037369 0.6920965242454498
H 5.550423244563778 4.054664414173588 5.774013639012624 -0.3673536137757831
H 4.180356906593811 3.3862461091723652 6.302820734599781 -0.37002752076220946
24

O 4.097886560009794 2.3011774507101337 3.289734544868973 0.696306148269543
H 4.501196702601495 2.64156688767835 4.2127360818962165 -0.3909057518582294
H 4.4657774936731975 2.8294034295760913 2.5468927439976166 -0.36273017035859634
O 2.365396073129723 0.8692736420942124 2.177716061850295 0.7976807320176822
H 3.0308411578915546 1.4584477454792646 2.7807430433041564 -0.4018331228266703
H 2.8786065129408938 0.13360803239725896 1.7936014483750984 -0.3452819934053628
O 2.1364410967459606 0.9899001287225091 5.326173653058028 0.707572135609813
H 1.4559629066566817 0.9754424372289512 6.008639529692042 -0.3432898053375615
H 1.9528266713598144 1.636912218448658 4.663680752075236 -0.37044157809105016
O 1.9336469873409698 6.734390448430904 3.6000186320496197 0.7782559158390283
H 1.597470568415888 7.586845518212023 3.0306639881678903 -0.37473534337264724
H 2.1916715192149763 7.059783669125266 4.462097520129268 -0.35901568009447216
O 4.67070203292757 5.775264337688146 2.5777111753023707 0.7375549096532241
H 5.261226706396401 6.449562904136847 2.7572134149213805 -0.35728987985058014
H 3.776976974784962 5.849031223600819 3.020705678766984 -0.369507112714728
O 1.327552196991384 3.93623382879037 1.8575914494038277 0.7319939698062241
H 1.5156249945804556 4.865361629800711 1.9647514483750006 -0.374515421464119
H 2.0045488761930996 3.312634865524082 1.5164595967269534 -0.3592494478505124
O 7.5877142326152445 2.0225007668044044 3.3451489125088156 0.7229666352327011
H 7.435367214340853 2.73684851506093 3.9192370167790775 -0.3469026107882147
H 7.996524187961559 2.222760015412824 2.4538695186227812 -0.3719254467012507
O 4.69159658684457 3.7120755202083324 5.589085223788703 0.690326020335396
H 5.553272753764554 4.051801010210429 5.776805156206761 -0.36740046939710047
H 4.169434352442501 3.379700964768979 6.323732590923013 -0.36763263265250523
24

O 4.0978206707618305 2.300681792561159 3.2887699108209745 0.692505052049097
H 4.492930024533018 2.640814326926048 4.208330040177994 -0.39205179286397074
H 4.464290340355685 2.8388777873963975 2.544096809809387 -0.3624419194216921
O 2.365208224062892 0.8701000451349907 2.177828543773406 0.8039094129354423
H 3.032335784371124 1.4657508188725434 2.7857473494745113 -0.4010283084592986
H 2.884995410604364 0.13834682592054204 1.793883455214131 -0.34399411186583284
O 2.1379695721253387 0.9903518497602195 5.326085205645456 0.7059060194627427
H 1.450224774864978 0.978557237118833 6.003755038520512 -0.34233797270699917
H 1.9463942052018133 1.6367059400493706 4.667548497889448 -0.3698070190261673
O 1.9332363332684237 6.735062267209754 3.5973834538189 0.775143495652024
H 1.6056171176317091 7.574162134890793 3.0431231874501443 -0.37753460899306657
H 2.189844339291267 7.055767890195262 4.466325840798623 -0.3582098677111154
O 4.66954092521953 5.773453576561891 2.5782617996556145 0.7363859836555979
H 5.257375752288896 6.452787357992834 2.755008137684855 -0.3567572924142529
H 3.773285660893733 5.856975193359429 3.0236327005613917 -0.3684147724128486
O 1.328411221767177 3.9362844886087567 1.8599290301244817 0.7319239879752286
H 1.5174983508024054 4.86020127741173 1.966458380349459 -0.37479775769088086
H 2.008017469987543 3.3084215332298137 1.5173545552040164 -0.3588789376879995
O 7.587405391328629 2.023568109170567 3.3454237019821704 0.7230352845513859
H 7.441821468075169 2.73299288624167 3.9132677933101223 -0.347242733173434
H 7.996447656862937 2.2276113962889235 2.4579091329699434 -0.3716365792781986
O 4.6920364098120295 3.711276710710798 5.587020778868182 0.6883356505050462
H 5.556545759786954 4.049095636556767 5.779944952739117 -0.3672067839231059
H 4.1587114943398245 3.3732347713893485 6.344763697165353 -0.36480442915777456
24

O 4.097830156460214 2.300252146808902 3.2878669824130373 0.6890393748506363
H 4.483969304264073 2.6396932191856965 4.2025435635722905 -0.3931244529024378
H 4.4625948952014705 2.8480625502745998 2.541906394678304 -0.3621371834524617
O 2.3650704953268575 0.8709640826337312 2.177967083754707 0.8093514628904666
H 3.0327943189710616 1.4721076592943785 2.789866824992019 -0.40014576952723724
H 2.8913070733202897 0.14333139006810847 1.7942584182933448 -0.3427424788370298
O 2.139507105461059 0.9907702917467668 5.326045266732574 0.7042589824720056
H 1.444562283658821 0.981708424765669 5.998679177508923 -0.3414503232040168
H 1.9397409420481426 1.6369397784621287 4.670843795324844 -0.36914443811204645
O 1.9327906560979697 6.735782991759384 3.594676237297669 0.7718267768626768
H 1.6144305864859978 7.560262243127738 3.056541236619195 -0.38020614856763546
H 2.1880581674194803 7.052007773171805 4.470777093436802 -0.35732727817474963
O 4.668251704960855 5.7715449941526 2.578805694165712 0.7349405137174778
H 5.254493288524448 6.457420891776104 2.7532876425687283 -0.3559848293682073
H 3.77047894746504 5.865109246152693 3.0261968742241576 -0.36735699930707033
O 1.3292600497491804 3.936259611223667 1.862248284473425 0.7317848668299449
H 1.519822509628543 4.855434638608204 1.9682047426232083 -0.37495153414604476
H 2.0111509680189554 3.3049495085145524 1.5185961053105528 -0.35854664521476376
O 7.587125111549663 2.0245455109855786 3.3455928108545723 0.7228479502882372
H 7.448185983629591 2.7305121411248496 3.9079618509433094 -0.34731821868010004
H 7.996076653655714 2.232572097671131 2.4630145416358467 -0.37138328306503754
O 4.692416974834631 3.710442774719526 5.5849631506880195 0.6861582692609416
H 5.560184466223536 4.046523882659805 5.783417708076213 -0.3667799100791789
H 4.148593540926812 3.367103869165808 6.365321946735076 -0.3616087045343557
24

O 4.097915291404619 2.299892197726545 3.287011658840222 0.6860196378016656
H 4.474375796528669 2.638244205858309 4.195498798444181 -0.39409448752760845
H 4.460634199306927 2.8568666251731036 2.540433523524414 -0.3618252243500648
O 2.364986373482182 0.8718691955713863 2.1781344224805066 0.8137844468852724
H 3.032175844576197 1.477474297084692 2.793053540532727 -0.3992006103313568
H 2.8975285468546423 0.14855828653478065 1.794728366656939 -0.3415629662665931
O 2.1410496746728036 0.9911556935668159 5.326057103533609 0.7026337803801432
H 1.4390235692566054 0.9848718920231736 5.993400172063235 -0.3406323975170765
H 1.9328809609268187 1.637630260062126 4.6735247976021395 -0.36844250149281554
O 1.932321036213027 6.736537933900081 3.591920810356157 0.7684279318542369
H 1.6237774492316746 7.545437369043014 3.0706968978726117 -0.3826465317103048
H 2.1862682544955483 7.048440163124947 4.475293880512497 -0.3563851121117503
O 4.666836565321544 5.7695471018512325 2.5793480469658014 0.7332267107396193
H 5.252494849795092 6.463358208536912 2.752007036979801 -0.3549737014891835
H 3.7686045781298727 5.873402152355191 3.0283595604727105 -0.3663513244369593
O 1.3301016903800034 3.936144810307243 1.8645456494859365 0.7315821666697095
H 1.5226308593644065 4.851220728894736 1.970006733330507 -0.37497394400775597
H 2.0138672523708037 3.3022863404040215 1.5202245593488788 -0.3582642506047087
O 7.586874107687989 2.025418981100071 3.3456486742232134 0.7223878424329515
H 7.45441564734047 2.729636754604616 3.903520773564614 -0.3471112760383407
H 7.995444924325761 2.2376331002325824 2.469104794903608 -0.3711649536400061
O 4.692722698719333 3.7095628743640683 5.582943561574823 0.6838171466249527
H 5.564112759946254 4.044054722185264 5.787203327746008 -0.36611138686544753
H 4.139400575077683 3.3615087491648 6.384926731456327 -0.358138994998519
24

O 4.098075225884952 2.2996043886759616 3.2861893393666 0.6835461283078124
H 4.464220511470954 2.6365145239226684 4.187341640674419 -0.3949372348902256
H 4.45836129869054 2.865210264155777 2.539771293730812 -0.3615119584634896
O 2.3649580572764273 0.8728175642272302 2.1783330961913463 0.8170908356831581
H 3.0304497358888334 1.481816672218029 2.7952707690225234 -0.3982126605059906
H 2.9036487465978054 0.15402099504454897 1.7952936147063232 -0.3404957078829435
O 2.1425930676202753 0.9915097531124691 5.326122062036744 0.7010352293959603
H 1.433651929364965 0.9880231290187093 5.9879128738622045 -0.3398905946933677
H 1.9258361629474385 1.6387708692696747 4.675573397206706 -0.36769024318921684
O 1.9318404039019736 6.737307303293148 3.5891444425702868 0.7650057494382769
H 1.6334994604035773 7.530071935190227 3.0853114852988206 -0.3847672899244494
H 2.18443008287594 7.045001574321263 4.479714753426508 -0.3553955762234815
O 4.665302071811163 5.767472047835614 2.579894132304806 0.7312605903215257
H 5.251250961704564 6.470436248625296 2.7511081826676986 -0.3537319333580542
H 3.76768687085989 5.8818223287233495 3.030093861315695 -0.3654114341480129
O 1.3309382290955722 3.935928464978452 1.8668183800732547 0.7313189901397057
H 1.5259515166264914 4.847694636024147 1.9718783290785347 -0.37486923710468834
H 2.016104308639392 3.3004801800319084 1.5222695322591395 -0.35803509027475156
O 7.586651365850168 2.0261780171276915 3.3455886237432586 0.7216466283497953
H 7.46047994771306 2.7305356996051597 3.9000973923188624 -0.34661332773278497
H 7.994598943310912 2.2427913668144455 2.47606970008572 -0.37097929131147
O 4.692943603059194 3.708629711456171 5.58098769590818 0.6813533842917043
H 5.568239086364993 4.0416518819784395 5.7912769180825885 -0.36520549621428666
H 4.131379653985787 3.356602610700716 6.403194307695121 -0.35451046001074404
24

O 4.098307909011416 2.299389739623047 3.2853847794569635 0.681698998448272
H 4.453584620813851 2.634559461598688 4.17824477842393 -0.39562324434123386
H 4.45573956742117 2.8730263880790536 2.5399930045796246 -0.3611981143762448
O 2.364987136169807 0.8738112597780129 2.178564678554109 0.8191302460104899
H 3.027595436246963 1.4851106841115334 2.796492972517671 -0.39720117753690876
H 2.909658595917616 0.15970997608664717 1.7959528149173818 -0.3395651812250886
O 2.144132895557636 0.9918356243896767 5.326239555610557 0.6994716389624394
H 1.428484853564091 0.991137431278081 5.982219097432984 -0.33923000617628085
H 1.9186369423265817 1.6403320747031165 4.676995091697836 -0.3668813171834544
O 1.9313636337834215 6.738065232118247 3.586377798474785 0.7616788585433858
H 1.6434002129586553 7.51463811625284 3.100055536786226 -0.38650062218698356
H 2.18250115500103 7.041630310439781 4.483880506276396 -0.35438740000709723
O 4.663658356509054 5.765334811067576 2.5804490868098338 0.7290645380854455
H 5.25059905152185 6.478446361498683 2.7505235803880845 -0.3522753682277494
H 3.7677275042099097 5.890338501782945 3.031384338854348 -0.3645456618980629
O 1.3317709207401311 3.9356022150245393 1.8690646098971297 0.7309977767531504
H 1.5298055684592293 4.8449599731364215 1.973830512752584 -0.3746404313600662
H 2.0178205230893638 3.2995595234208848 1.524749757147489 -0.3578638101548902
O 7.586454037783268 2.0268165723747664 3.3454156693939767 0.7206247188299819
H 7.466364447469819 2.733300289627322 3.8977833239896036 -0.34582310896000157
H 7.993598147775321 2.248050710031363 2.4837698818937146 -0.3708238711220776
O 4.693074347756573 3.7076388987434687 5.579116608963236 0.678811449692039
H 5.5724602195237685 4.039275474991239 5.795609050989611 -0.3640812173150826
H 4.124716620535093 3.3524994770910777 6.419822937803793 -0.35083769325400727
24

O 4.0986100694445105 2.299247711152732 3.284582016943888 0.6805398850140565
H 4.4425600174293365 2.6324470786091974 4.168414150275327 -0.39613599386904774
H 4.452742874281218 2.8802615621252383 2.541151590421761 -0.3608824321651619
O 2.3650743000010936 0.8748517311175296 2.17883009959392 0.8198697222319171
H 3.0236025758685603 1.4873425457654328 2.7967060448270793 -0.39619837308183714
H 2.91555124506479 0.16561294685561148 1.7967028567187835 -0.3387991003656696
O 2.14566462212587 0.9921378242418926 5.326407155891474 0.6979462731792867
H 1.4235534249672683 0.9941900488703856 5.976327702481796 -0.33864944459126034
H 1.9113223722704897 1.6422627579753333 4.677817475272771 -0.3660104710329114
O 1.930907582552994 6.73877888552979 3.583654821200619 0.758537183866375
H 1.6532474696897614 7.499715762919066 3.1145396087560138 -0.38781353984505273
H 2.1804426081590234 7.038268372104612 4.4876401790047495 -0.3533959439912495
O 4.661918203629527 5.763152232237629 2.5810176724695446 0.7266762235686859
H 5.250356917449997 6.487149091805258 2.750180548381942 -0.35062714401428463
H 3.7687064711453817 5.898920359760242 3.0322266506729028 -0.3637656781122971
O 1.3326002669673065 3.9351613548407802 1.8712834005853063 0.7306207726526464
H 1.53420550898573 4.843082922322272 1.975870657830492 -0.3742929826935574
H 2.0189950348957515 3.299532928863786 1.5276729290565672 -0.35775281448654916
O 7.586277479725767 2.0273336463180396 3.3451388622622824 0.719329665552632
H 7.47207043421205 2.737934264117629 3.89660202326258 -0.3447484456883313
H 7.9925147091412265 2.253422372751194 2.4920379808264075 -0.3706932165348642
O 4.693113226703652 3.706588137777974 5.577347263646049 0.6762703530327503
H 5.57666550577879 4.036883756377181 5.8001662471379145 -0.36277441452074133
H 4.119546946520448 3.349281554998324 6.434578963767866 -0.34725008410564595
24

O 4.098977197685282 2.2991760644106707 3.283764256827365 0.6801291095832025
H 4.43124874279334 2.6302576918702925 4.15808888671101 -0.3964671098630014
H 4.449355509629769 2.8868769423216283 2.5432792958689876 -0.36056526704077785
O 2.365219371947244 0.8759398638772181 2.1791295402633377 0.8193022843374909
H 3.018471657861484 1.4885096527334554 2.7959080069824296 -0.39522854530671614
H 2.9213221873955644 0.17171521850215335 1.7975389480227526 -0.3382024097657229
O 2.147183610793433 0.9924220605619082 5.326620775329058 0.6964621404530058
H 1.418881921693548 0.9971563566157516 5.970254436459552 -0.338145367138033
H 1.9039398648962103 1.644492885802142 4.678087560983275 -0.3650745591841381
O 1.9304906903325711 6.739408739927456 3.581011893847904 0.7556601024775511
H 1.6627775323300409 7.485984482446699 3.12832337389657 -0.3887052194961991
H 2.178220567648438 7.034863021023663 4.490856425840582 -0.3524589758245902
O 4.66009623375989 5.760942117255266 2.5816040789109227 0.7241460341099255
H 5.25033461238244 6.496287860071455 2.7500047921577004 -0.34881841215524856
H 3.770583058877136 5.907539201637879 3.0326271591406697 -0.3630841117023339
O 1.3334260866971153 3.9346050977102514 1.8734747704417005 0.7301904391272922
H 1.5391539560123708 4.842088119509167 1.97800211632463 -0.3738354849743505
H 2.019627919913093 3.300388939391648 1.5310356767024846 -0.3577012237045245
O 7.586115449939222 2.027733387631168 3.3447731243057963 0.7177744405547601
H 7.477612883510942 2.744351971713337 3.896508475210949 -0.34340362596019725
H 7.9914325117522536 2.258925248494215 2.50068166150349 -0.3705801071533783
O 4.693061268093041 3.705476765707108 5.575693479731921 0.6737438484473246
H 5.580740980248311 4.034434750524846 5.804911572242188 -0.3612998850701803
H 4.115966098781555 3.3470060812963993 6.447282949579686 -0.34383809475119154
24

O 4.099403600480186 2.299170776596154 3.2829138768972377 0.6804816899272519
H 4.4197618216547925 2.6280840837899953 4.147541077115332 -0.3966061878497109
H 4.445572082913172 2.892849069580176 2.5463874620566154 -0.3602471233200012
O 2.3654212412057203 0.8770758866121265 2.1794623578610883 0.8175365897612081
H 3.012215037882387 1.4886217557230328 2.794110008688962 -0.3943377350335767
H 2.9269693053103043 0.17799994674582834 1.7984545437815922 -0.3378033004363262
O 2.1486851902442705 0.992694998367453 5.326874919956269 0.6950274833949504
H 1.414487578622563 1.000012059788372 5.964021567639987 -0.337717009239641
H 1.896544316024163 1.6469371795106118 4.6778682028664145 -0.3640734591094166
O 1.9301322508875618 6.7399098800133865 3.5784864639183582 0.7531232444290104
H 1.6717060181908097 7.474202457152912 3.140932701278981 -0.389210444409528
H 2.1758072634453844 7.031368000861684 4.49341026997232 -0.3516162308696321
O 4.6582081926629515 5.758722424508982 2.5822117643525155 0.7215054968211634
H 5.250344649323266 6.505601321102313 2.749923379569223 -0.3468634734828807
H 3.773296836582375 5.916168581467762 3.0326025185029937 -0.3625070014014037
O 1.3342475651524868 3.933936663787081 1.875639698479868 0.729708153139421
H 1.5446428435474016 4.841957174015622 1.9802240891348433 -0.3732796976497559
H 2.0197402466325554 3.302096172786321 1.5348236420554564 -0.3577045351082607
O 7.585960448934441 2.0280246956285013 3.344338534114181 0.7159814084349656
H 7.483017024731879 2.7523842096031697 3.897395602527372 -0.3418136241216032
H 7.990445241203892 2.2645856027673705 2.509488559833577 -0.3704754409315615
O 4.692921543971446 3.7043053778092006 5.574166544885529 0.6712904063692842
H 5.584573116907976 4.031887644463491 5.809805314720045 -0.35970544388628123
H 4.114036993738861 3.3457102272092833 6.45779974870374 -0.3406937654276574
24

O 4.099882484456601 2.2992259806154824 3.2820125374551674 0.681593650574835
H 4.408217505798205 2.626031463292827 4.137074423727769 -0.39655101875653753
H 4.441397535332365 2.8981707932203205 2.550466221111214 -0.3599301466200847
O 2.3656777835910896 0.8782592527393515 2.179827013302314 0.8146961998226936
H 3.0048585778999852 1.487702769293117 2.791337842843649 -0.39356507719261713
H 2.932492794161994 0.18444857636995468 1.7994414569101238 -0.3376097230905587
O 2.150164733936486 0.9929639849266396 5.327162986226417 0.6936542233496656
H 1.4103806232975329 1.0027333690179228 5.957657339280403 -0.3373642595925045
H 1.8891968003179294 1.6494994604216338 4.6772339546775505 -0.36301138240731456
O 1.9298510347016222 6.740235112725093 3.5761145918855646 0.7510107089649549
H 1.679749176793097 7.46515440941861 3.1518942391047053 -0.38939643526092227
H 2.173181936754052 7.027744453881937 4.495205292253655 -0.35090898203568344
O 4.656270292942728 5.756510485952361 2.5828433237998953 0.7188676051583638
H 5.250211305725798 6.514835353494335 2.74986719014663 -0.34486248462396596
H 3.7767687251411455 5.92478493041421 3.032179192234212 -0.36203498098179887
O 1.3350632745763906 3.933163169418853 1.8777801012621982 0.7291890949822297
H 1.550653062631555 4.842630095269919 1.9825318138052077 -0.3726463401907839
H 2.0193740006617604 3.3046036074716323 1.5390116689415905 -0.35776171982760996
O 7.585804154267666 2.028220387598527 3.34385916985704 0.7139793581472451
H 7.4883141521777015 2.761793860662275 3.899106259603144 -0.34001048267406275
H 7.98965375923848 2.2704363137863046 2.5182326722864925 -0.3703688753911538
O 4.692698574480151 3.7030754797105176 5.572775621675757 0.6690763502171102
H 5.58805243780498 4.0292040925263715 5.814805779709326 -0.35804129501475723
H 4.113795686533376 3.345414721487021 6.466030974168195 -0.3380039875567117
24

O 4.100406123647588 2.2993339842969927 3.281041508792835 0.6834514171143418
H 4.396738195818288 2.6242157637766828 4.127019253096078 -0.39631628193365676
H 4.436847228722784 2.9028523453515427 2.5554839471010995 -0.3596216987067786
O 2.3659857206511243 0.8794884040027316 2.1802210391391847 0.8109252475766577
H 2.996443420123584 1.4857927413645318 2.7876336277584173 -0.3929468341100133
H 2.937895036275277 0.19104130378180956 1.8004899681455626 -0.33761724860019227
O 2.151617748230063 0.9932367574060816 5.327477579197071 0.6923535218914008
H 1.4065645213787996 1.00529715900973 5.951195282562518 -0.33708323998279344
H 1.8819629327513967 1.6520772804496269 4.676266706258373 -0.361897727493825
O 1.9296634185190413 6.740339987450381 3.5739276649742586 0.7494068527251685
H 1.6866539082036178 7.459573667764852 3.160782708208609 -0.3893450096008143
H 2.1703315386802005 7.023961588172498 4.496171248870844 -0.35037765236843676
O 4.654298751929615 5.754322469141113 2.5835004317913985 0.71625902963497
H 5.249776334827765 6.52375070812208 2.7497727803669343 -0.3428270880257007
H 3.780902159217093 5.933368123076906 3.031392898508582 -0.36166955095231834
O 1.3358711737587732 3.932295337186658 1.8798987914374319 0.7286104180903406
H 1.5571546236035811 4.844009237366541 1.9849171133322003 -0.37194013582111596
H 2.018591879408464 3.3078409695792286 1.5435640881888648 -0.35784951053756675
O 7.5856379318790825 2.0283361239020214 3.3433615997968875 0.7118047473587257
H 7.4935373906063205 2.7722938187149135 3.9014485257191382 -0.33803697820197764
H 7.989162303189017 2.276515240493197 2.5266830515636345 -0.3702472009629416
O 4.692397853938918 3.7017892367127248 5.571528103410727 0.6670633487259119
H 5.591076830355717 4.026349377719713 5.819869960039136 -0.35633650125076344
H 4.115255877491789 3.3461270673092915 6.471908321950944 -0.3357619245685839
24

O 4.100966161884722 2.299485437857301 3.279982399870266 0.686011584118045
H 4.385445351636855 2.622759832378317 4.11772134129203 -0.39591932271215113
H 4.431946643791672 2.906922353359242 2.561386959118573 -0.3593340721924876
O 2.366340480889099 0.880760541469437 2.1806409490263734 0.8063841910063683
H 2.987028141406889 1.4829502727578758 2.78305794138812 -0.3925168975889498
H 2.943180432735894 0.19775752537894883 1.8015889648972498 -0.337821565776818
O 2.1530399622640894 0.9935211563930437 5.327810832513942 0.6911306929489478
H 1.403036376637329 1.0076811073127645 5.944673424935963 -0.3368668524407382
H 1.8749110374275924 1.6545664654624548 4.675051420389555 -0.3607422802781869
O 1.9295819588422243 6.740186969172394 3.5719498498988496 0.7483787746787427
H 1.6922205193842677 7.458076302153784 3.1672574414198573 -0.3891244560984308
H 2.1672512290028974 7.019997176401693 4.4962671129906795 -0.3500550032646209
O 4.65230943188694 5.752172963142532 2.5841838211031836 0.7137440337896359
H 5.2489031889205675 6.532129469860966 2.7495833142559767 -0.340808203983496
H 3.7855846890526554 5.941901899377986 3.0302878341420656 -0.3614094313749192
O 1.3366685531066287 3.931347082508332 1.8819994007175884 0.7279941527023066
H 1.5641077742953198 4.8459653684109005 1.9873690305830751 -0.371188637459291
H 2.0174770864750444 3.3117192345486717 1.54843505480123 -0.3579659495116948
O 7.58545339335548 2.028389242435158 3.342873147429597 0.7094985623445447
H 7.498717917053883 2.783568148847215 3.9042123866213956 -0.33594302697227485
H 7.989073518840757 2.2828626699574386 2.5346146936072818 -0.37009452564091205
O 4.692025476078395 3.700449268766221 5.570429858277028 0.6653421321688491
H 5.593553962771966 4.023293170701473 5.8249542399229615 -0.3546455622173913
H 4.118412251971934 3.347843571070118 6.475389352047055 -0.3340483362450679
24

O 4.101553989179718 2.2996696190769206 3.2788181660448483 0.6892022539535307
H 4.374453291945196 2.621787707502048 4.109526446092485 -0.39538051469465674
H 4.4267314160493205 2.910429046619006 2.568099034590303 -0.3590819312282598
O 2.366736039381564 0.8820714065705544 2.1810820280812093 0.8012397545297527
H 2.9766919137723025 1.4792560712526215 2.7776930989455813 -0.3922996112789755
H 2.9483551737951066 0.2045761642967544 1.8027260218970649 -0.3382187083488901
O 2.154427406800284 0.9938248730540866 5.3281546991105015 0.6899912060075122
H 1.3997874939524675 1.0098638157623854 5.938133420320653 -0.33670866840074476
H 1.8681103299663653 1.6568651042577163 4.673672433540351 -0.3595579508572353
O 1.929612674146338 6.739753988290332 3.5701933136558384 0.7479537992688365
H 1.6963456963142567 7.461024441480622 3.1711358242308427 -0.3887722022100909
H 2.1639446708340957 7.015837987713398 4.495483580239905 -0.3499562274730532
O 4.65031756856006 5.750074710101327 2.584893313127144 0.7113905702686789
H 5.247479289021333 6.539779072397256 2.7492490763826942 -0.3388678315932022
H 3.790689896979322 5.950374167267537 3.0289156980211844 -0.3612461154147566
O 1.3374520118174855 3.93033498526904 1.88408628124728 0.7273466954216479
H 1.5714641828649336 4.848345228951665 1.989874716462078 -0.3704151929242572
H 2.016132401480327 3.3161317254030482 1.553569250973034 -0.3580973812456185
O 7.58524293836763 2.028397713928687 3.3424201764641523 0.7071064706611578
H 7.5038821370695485 2.795292158876015 3.9071850855224124 -0.33378318675034135
H 7.989482704197877 2.289517761116968 2.5418204214618765 -0.36989514515381394
O 4.691587879945655 3.699058515798325 5.569485338007944 0.6639994415338659
H 5.595403256075663 4.020010150316838 5.830014995585653 -0.3530114131414137
H 4.123242423741621 3.3505506545155583 6.476454839666724 -0.3329381109296984
24

O 4.102161170511116 2.2998748408313126 3.2775343740788774 0.6929291847371937
H 4.363862343002816 2.6214173613309466 4.10276088009023 -0.3947248281707708
H 4.4212471441744485 2.9134412732117108 2.5755212203405042 -0.3588797397132947
O 2.3671648058568624 0.8834151061888939 2.181538156694429 0.7956299048333555
H 2.965537047830072 1.4748158785261045 2.7716458493689102 -0.39230122829621605
H 2.953426957885849 0.211476086879088 1.803887642278422 -0.33879512603210626
O 2.1557764781833257 0.9941552364867275 5.328501205924005 0.688943345735131
H 1.3968040990078927 1.0118249117357463 5.93161959738646 -0.3366036131475896
H 1.8616291947873358 1.6588768873470412 4.672210381931463 -0.3583630434532803
O 1.9297544854643738 6.7390372903873885 3.5686570750799036 0.7481347132164489
H 1.6990314630843057 7.468481068827567 3.1724100355831393 -0.3882976636590788
H 2.1604239668120906 7.01148001053497 4.493844412639201 -0.3500784174318159
O 4.648337644444605 5.748038554286669 2.5856279062967027 0.7092506216428731
H 5.245415638894889 6.546532894780736 2.7487272200712494 -0.33706127562340604
H 3.7960795483255674 5.958777193885728 3.027334572378092 -0.36116303253265536
O 1.3382174600731365 3.929277602606951 1.8861643887128527 0.7266677486256008
H 1.5791686106448597 4.850979969838381 1.9924203482349494 -0.3696421741500189
H 2.0146784717649173 3.3209559899286307 1.558902973133767 -0.35822453879791405
O 7.585000210433632 2.0283794845849594 3.3420267087511544 0.7046777312470334
H 7.509050218602617 2.8071467561465795 3.9101617447074783 -0.3316150470925414
H 7.99047206843055 2.296514606912836 2.5481222233187437 -0.3696341509909786
O 4.691091727272152 3.6976201563302578 5.5686975384067825 0.663090029887953
H 5.596557370340485 4.0164804057160035 5.835009060287963 -0.3514722288423394
H 4.129707413204596 3.354225275690284 6.475108222826475 -0.33246717199169684
24

O 4.102779828549663 2.3000888781657154 3.276120520599 0.6970835699408624
H 4.353752744455737 2.6217531000111016 4.097711488398924 -0.3939809652727315
H 4.415549239857791 2.9160496864857324 2.5835316000634974 -0.3587415127550271
O 2.367617459184604 0.8847838831345788 2.1820015783449622 0.7896548359949263
H 2.953692299256794 1.4697642546739864 2.7650509652661097 -0.3925085790052447
H 2.958404702281358 0.21843648014483444 1.8050595476361546 -0.3395257259619079
O 2.1570839926955574 0.9945190261922063 5.328842688589318 0.6879931990643886
H 1.3940681940592201 1.0135451087868361 5.925178004973684 -0.3365445531801471
H 1.8555335004557154 1.6605140328932466 4.670739467177319 -0.3571794205493313
O 1.9299995220650845 6.738051912521035 3.567327339256621 0.7488958245083543
H 1.7003807197709138 7.480202294538966 3.171241540832257 -0.38767381489755304
H 2.1567092290486185 7.006928449409617 4.491406480622708 -0.350405008033587
O 4.646383235064873 5.746073374498336 2.5863858641547375 0.707359065553196
H 5.242646770393729 6.55225128229084 2.747981623414468 -0.33543124176693195
H 3.801605952841755 5.96710765318595 3.0256076853114955 -0.3611404598053065
O 1.3389601721250943 3.928194734804649 1.8882391280334416 0.7259600687848058
H 1.5871607927983906 4.853693716762398 1.9949920469439402 -0.3688933517809557
H 2.0132510744388887 3.326056585801771 1.5643657187793376 -0.3583299057661756
O 7.584720515594799 2.028351898221538 3.341713138840307 0.7022613048102726
H 7.5142352030448025 2.8188319734808935 3.912955009626117 -0.32949636449396325
H 7.9921050529269975 2.3038780842503077 2.5533820648466854 -0.36929644755375446
O 4.690543870712692 3.6961375731096857 5.568067838033559 0.6626296414713442
H 5.596963105202883 4.012689619598158 5.839894190168069 -0.35006260052269567
H 4.137751113966889 3.3588346864998493 6.471376882807433 -0.3326275587828301
24

O 4.10340304404739 2.3002995168514158 3.2745715456635516 0.7015433486933056
H 4.3441783793711926 2.6228758380423827 4.094601295188688 -0.39317584423159735
H 4.409702569718402 2.918367633075865 2.591985565892695 -0.35867939705355834
O 2.3680828590299594 0.8861679584210481 2.1824627382287356 0.7833900892658954
H 2.941314848696562 1.464267202325892 2.7580737333797694 -0.39289243971316745
H 2.9632982859112347 0.2254371204599608 1.8062269076443764 -0.3403819460959274
O 2.1583472234178163 0.9949223265425745 5.329171990772003 0.6871408303610755
H 1.3915585049180739 1.0150062672976974 5.918855353444295 -0.33652103595386706
H 1.8498851124884284 1.6616995123167682 4.669325321303496 -0.3560292801075159
O 1.9303338619780344 6.736830824473115 3.566178600046704 0.7501906026633172
H 1.7005862893437533 7.4956510678864285 3.1679447167460584 -0.3868552268137606
H 2.1528278339095106 7.002197562197522 4.4882586471641615 -0.35090379525388027
O 4.644466807151616 5.744186083733964 2.587164852121474 0.7057470642187065
H 5.239130285887601 6.556822025819593 2.7469826517143487 -0.3340182263194782
H 3.8071156576078415 5.975366196679137 3.0238014668568027 -0.36115835739040414
O 1.3396748957227549 3.927106685137079 1.8903161693885664 0.7252272472375245
H 1.5953773989756612 4.856311601564567 1.9975767061457346 -0.36819215175075704
H 2.011997375144502 3.331288719506407 1.5698822417074147 -0.3583974326949132
O 7.584401144775789 2.0283314279805684 3.341495309597034 0.6999026528268022
H 7.519442984213334 2.8300755546116716 3.915400782032303 -0.3274814269188714
H 7.994421226843886 2.311619543799857 2.5575108613174717 -0.36886726468582276
O 4.689951406280302 3.6946144020648948 5.567595733791009 0.6626223406768115
H 5.596582403342325 4.0086292985824 5.84462947770971 -0.34881313800146696
H 4.1472982566995285 3.3643353010497328 6.465315899727572 -0.3333972129584102
24

O 4.104025156723233 2.3004951190711957 3.2728889944712525 0.7061727606855475
H 4.335162894115549 2.6248346018796997 4.093568874039936 -0.3923294306593409
H 4.403780312756647 2.920530535865163 2.6007178925961894 -0.35870145864846337
O 2.368547932677999 0.887555354827849 2.1829100707653617 0.7769000094476499
H 2.928592745347405 1.4585253584673552 2.75091307949966 -0.3934130245202393
H 2.968118348261233 0.2324585459758143 1.8073746025967157 -0.3413407349904737
O 2.159563917119235 0.9953704216285673 5.32948262876688 0.6863833260382388
H 1.3892515116245001 1.016191421941901 5.9126980092742825 -0.3365226725976286
H 1.8447406287072567 1.6623686099796733 4.668023453128153 -0.35493338220481574
O 1.9307403080331615 6.735417269318807 3.5651783039423384 0.7519492928223741
H 1.6998879418259736 7.5141191519882025 3.162915237098689 -0.3857772488266028
H 2.148813394120755 6.997310229289981 4.4845194470770835 -0.351531514925961
O 4.642599492472074 5.742381686850266 2.5879621049145434 0.7044516074259195
H 5.234846028653959 6.560160293555281 2.745706823134484 -0.3328682712864659
H 3.8124538709453417 5.983556627545451 3.0219832044065726 -0.3611973803490698
O 1.3403560330932263 3.926033545450246 1.8924012467927311 0.7244689123828134
H 1.6037538714160104 4.858666496475618 2.000162692463737 -0.36756008223444636
H 2.0110711582543295 3.3365026952579213 1.5753744954297475 -0.3584094300103341
O 7.584041563146072 2.0283335522827644 3.341383966361434 0.6976434310737174
H 7.524672775589935 2.840638469868464 3.9173615498932604 -0.3256190797681987
H 7.997432726495514 2.31973314096401 2.560473813191514 -0.368333885241638
O 4.689321799379187 3.693054624775444 5.56727850271193 0.6630689648495809
H 5.595393141499247 4.0042969036589495 5.849175765102071 -0.34774742847839113
H 4.158251467932159 3.3706710249583063 6.457013534979635 -0.3347532799838159
24

O 4.1046419139094406 2.3006651183868914 3.2710816350652934 0.7108311982052711
H 4.326698906753193 2.6276406117892708 4.094654731895702 -0.39145637214352536
H 4.397862163657282 2.9226937923426037 2.6095464157533526 -0.35880803809178996
O 2.368997789388803 0.8889320218634619 2.183329853432248 0.770239714903858
H 2.91574468723078 1.4527745748867513 2.743802167396151 -0.3940222121759598
H 2.9728761569619184 0.2394821497392624 1.808487501046881 -0.34238034224579417
O 2.1607322936945024 0.9958677238393677 5.329768922799683 0.6857208679229558
H 1.387122530976516 1.0170848129520567 5.906750979233552 -0.33654185632444533
H 1.8401503464139501 1.6624699248961545 4.6668781946129805 -0.35391325396323814
O 1.9312001596064141 6.733859789322949 3.5642898878760536 0.754110800339002
H 1.6985445142849298 7.534803899285963 3.156587093805485 -0.3843996594953891
H 2.1447044591356152 6.992297222267945 4.480333517024812 -0.35223567650701737
O 4.640790829174412 5.740663372910434 2.588774616957393 0.7035277342945823
H 5.229795100596492 6.562208284449216 2.7441364308123246 -0.332048986666469
H 3.8174694237959494 5.9916847539332725 3.020218407387806 -0.36123609344016894
O 1.3409979485036791 3.924994483575651 1.8944999204075887 0.7236786076790218
H 1.6122260266409822 4.860604736826057 2.0027402605591353 -0.3670144686799678
H 2.010626281595978 3.3415498195234687 1.5807659714569628 -0.35834655810068305
O 7.5836434460580175 2.028372734855798 3.34138462274979 0.6955219746998937
H 7.529917942530058 2.8503174803723397 3.9187275039130323 -0.3239513441455567
H 0.0011228822563840168 2.328193792391617 2.562291471084436 -0.36768769682134084
O 4.688663075210606 3.6914626974263034 5.567110655679753 0.6639631884406509
H 5.593389855352014 3.9996959464912574 5.853496096218639 -0.3468798508119897
H 4.170487529339992 3.3777711300017867 6.446598252734923 -0.33667167687187083
24

O 4.105250446910167 2.300800365282832 3.2691654165869926 0.7153871646502268
H 4.318750490892863 2.6312649666505403 4.09779698073356 -0.3905712177906997
H 4.39203207713163 2.9250294900398686 2.6182769040423475 -0.358993247777187
O 2.369415841499106 0.8902819316449324 2.1837061695041524 0.7634647251963385
H 2.9030189028739843 1.447285636636597 2.7370082617646605 -0.39467055054487277
H 2.9775835658601606 0.24649016804438226 1.8095507191349236 -0.34347619815334696
O 2.1618510297336777 0.9964177307503138 5.330026094249402 0.6851566927783981
H 1.3851468399986402 1.0176718926995887 5.901056972863847 -0.33657278003460556
H 1.8361574401161527 1.661965895600205 4.665922058857858 -0.3529907734267942
O 1.9316949168942958 6.732207063156474 3.5634758094600563 0.7566246033706532
H 1.6968079288945865 7.556890673622425 3.1493897557348673 -0.38271515216834806
H 2.1405430418358438 6.9871960940657 4.475866967760896 -0.3529627376852327
O 4.639048464902875 5.739032604942755 2.5895993364385745 0.7029221639083154
H 5.223999147211704 6.562935089193842 2.7422594010117716 -0.33151787528347376
H 3.82201995759294 5.999756883384746 3.0185680423235306 -0.36125607764231105
O 1.3415953493400659 3.9240070347931186 1.8966173200357352 0.722847565955341
H 1.6207315890290221 4.861990329944277 2.0053020182293975 -0.3665697292999993
H 2.010809071115985 3.3462890391986715 1.585984774097161 -0.3581899706926831
O 7.5832105545379 2.0284625349432504 3.3414978714557657 0.6935749517355057
H 7.535167002504196 2.8589439756977932 3.9194149656703186 -0.32251500036109837
H 0.005447062501560269 2.336956609916735 2.5630363735495942 -0.36692453251698676
O 4.687984055745312 3.68984370434702 5.567083411990602 0.6651477088962738
H 5.590584431596974 3.9948360628929582 5.857556212993185 -0.3462167072106518
H 4.18385314033171 3.385547981162891 6.43424693525992 -0.3389830259027927
24

O 4.105849146262909 2.3008933951897244 3.267162631275943 0.71971804616323
H 4.311258496635364 2.6356403828576624 4.10283711510391 -0.38968296942804004
H 4.386374942668459 2.9277204250490105 2.6267105603095082 -0.35924385707915363
O 2.3697842979572594 0.8915875334606509 2.184021341441339 0.7566461143256853
H 2.890685335413208 1.4423570900659 2.730825548119008 -0.39531589083466834
H 2.9822530591695253 0.2534655939115424 1.810549837542306 -0.3446051234915001
O 2.162919234054501 0.9970230050052684 5.33025035598373 0.6846900371314166
H 1.383300779515122 1.0179393401726364 5.895655531870747 -0.33660885765156
H 1.8327973240109088 1.6608329776548432 4.665175408515165 -0.3521828745521395
O 1.9322076012571592 6.730503695129559 3.5627000217043734 0.7594541816845362
H 1.6949039530525707 7.5796212807450605 3.141714535334101 -0.38075649863096717
H 2.136372994274175 6.982049640186227 4.471301693762267 -0.35366572378433925
O 4.637377862897034 5.737489201237894 2.5904333448273063 0.7026772992587658
H 5.217500068525904 6.562337493450926 2.740068815529914 -0.33132365795356744
H 3.825977069512343 6.007778053838002 3.0170858028224563 -0.3612438045490184
O 1.3421437137739707 3.9230864581854434 1.898757889919048 0.7219678340362166
H 1.6292114954808308 4.86270846603633 2.007843166112102 -0.366235577762162
H 2.011750208007192 3.3505937435812227 1.5909673390668637 -0.3579256039143919
O 7.582748483453832 2.0286155580613188 3.341719902041507 0.6918339285738093
H 7.540404586297744 2.866383618027564 3.919365454312221 -0.321338260848963
H 0.01033566861051412 2.345958024198361 2.5628257985333067 -0.36604494905749385
O 4.687294726740141 3.688203598910102 5.567183833960986 0.6665520432244172
H 5.587006671254843 3.9897330261251525 5.86132506610401 -0.3457591456896397
H 4.1981581434586825 3.3938929122616375 6.42019854187106 -0.34160668917043346
24

O 4.106437481837239 2.3009386298091683 3.265100385537856 0.723721143667241
H 4.30414775750975 2.64066659127367 4.10953486824817 -0.3888012351107738
H 4.380972470576648 2.930951669287719 2.634653502252801 -0.35954367810768206
O 2.3700849649387266 0.8928305611842733 2.184256704733189 0.7499148392544135
H 2.8790227457240785 1.4383024352342608 2.7255628112981904 -0.39592997582264267
H 2.9868979019678314 0.2603920227092864 1.8114710695184544 -0.3457518438895042
O 2.163936418270454 0.9976851542084116 5.330438967981771 0.6843213738760101
H 1.3815628020788173 1.0178751097699 5.890582601109044 -0.33664584143647613
H 1.8300970743233678 1.6590617679789408 4.66464616326041 -0.3515029659082435
O 1.932723366311357 6.7287883015273415 3.5619292820051807 0.7625392422740127
H 1.693024395436596 7.60232639648811 3.1339005129331206 -0.3785958714451344
H 2.1322382892389724 6.976904009992276 4.466828697537668 -0.3542995404601943
O 4.635781982825031 5.736031420985001 2.5912740345444196 0.7027934642201188
H 5.210359655665434 6.560440327704574 2.737562874548713 -0.3314673851344093
H 3.82923132322444 6.015750070060883 3.015815470068769 -0.36119231486040826
O 1.3426397051392822 3.9222452081935373 1.9009251388912052 0.7210323803822025
H 1.6376109910845817 4.862667681360382 2.0103616244239455 -0.36602027152350547
H 2.013557030406913 3.3543579534228454 1.595661801052316 -0.3575408595693109
O 7.5822643181291385 2.028843370026215 3.342043200598303 0.6903298861436487
H 7.5456123415575584 2.872535200925664 3.918544248596505 -0.32044483384736977
H 0.015698607796625685 2.3551182695812543 2.561812115493193 -0.3650551219099001
O 4.6866066336577505 3.686549451990061 5.567393887635591 0.6680497658128834
H 5.58270483536573 3.9844087389066596 5.864775439994144 -0.345502867046925
H 4.213168789355128 3.4026725264341047 6.4047682165369 -0.34440748955807654
24

O 4.1070157934682126 2.300932482782989 3.2630086363658912 0.7273068809163847
H 4.297335015664003 2.6462185115564365 4.117589661916844 -0.3879339211014251
H 4.375898994347371 2.9349010079278517 2.641926653631039 -0.3598709099619626
O 2.3702999936363613 0.8939926711173389 2.184393818186504 0.743369247814057
H 2.868303590884502 1.4354343860207066 2.7215279486610218 -0.3964969950692483
H 2.9915323088059407 0.26725342129020546 1.812301375536905 -0.3469030847647675
O 2.164902466292144 0.998404822889344 5.330590297979025 0.6840543057468009
H 1.3799144476142962 1.0174684774008385 5.885868982888692 -0.3366827993700797
H 1.8280749694526501 1.6566569226225085 4.664329635360421 -0.3509616937284722
O 1.9332297968055696 6.727092588542002 3.5611339857870736 0.7658661734294498
H 1.6913269283235126 7.6244479518424 3.1262243823003257 -0.3763223415511622
H 2.1281813165500765 6.971806575745114 4.462640867443983 -0.3548280546526025
O 4.634261011856462 5.7346560319401645 2.5921192576506717 0.7032550189190363
H 5.202659469504877 6.557297335432884 2.7347447868555825 -0.3319349059766268
H 3.831696586603775 6.023669533185337 3.014788652360697 -0.3610951188596314
O 1.343081598943808 3.921492481519132 1.9031214865529398 0.7200310561782679
H 1.6458805355317827 4.861801111741807 2.0128580823135698 -0.3659235460962894
H 2.0163058450574542 3.3575023012471394 1.6000311732438282 -0.3570264529248719
O 7.581766258359261 2.0291564038877934 3.3424573112483973 0.6890924751520022
H 7.550769736707208 2.8773288419892293 3.9169385472935616 -0.3198508135887652
H 0.021430341308636604 2.3643446263158587 2.560172536504376 -0.3639696499833198
O 4.685933278719303 3.6848896973140417 5.56768942793553 0.6694984783019182
H 5.577746241643148 3.9788912359741975 5.867884620722166 -0.345437709726911
H 4.228600857189146 3.4117248950938586 6.388362772168448 -0.34723563910171906
24

O 4.107585130141694 2.3008734765652084 3.2609179840855007 0.7304014512406714
H 4.290736240627291 2.652155388714185 4.1266646081083325 -0.3870974723521051
H 4.371217076127019 2.9397278089302454 2.6483762966660063 -0.3602018134052005
O 2.3704133990416296 0.8950573028526762 2.1844156406192186 0.7372061761530693
H 2.8587722598189083 1.434041080916006 2.7190045911870246 -0.39701704785210834
H 2.996171649823216 0.2740340235593713 1.8130285073237788 -0.3480510749468281
O 2.1658176026529894 0.9991816919948776 5.330703858246645 0.6838911527696996
H 1.3783411893599902 1.0167101157499283 5.881540179293259 -0.336720376191157
H 1.8267401455509213 1.6536369673807445 4.664208504204056 -0.3505641567564278
O 1.9337168227984545 6.725441816041505 3.560288402389065 0.7693386563313229
H 1.6899350647825022 7.6455283375693215 3.118909234923332 -0.3740441293619152
H 2.124241136302034 6.966803555242279 4.458924877739735 -0.35521289654635224
O 4.632812152138085 5.733358335847867 2.59296743131423 0.7040400503708073
H 5.194501014789333 6.55299251188907 2.7316227226602905 -0.3327029959655756
H 3.8333132607409337 6.031526086150343 3.014023149944842 -0.3609490988542381
O 1.3434696275958922 3.920833915356361 1.9053480886572562 0.7189517755885295
H 1.6539765125205472 4.860066935283634 2.0153359461099947 -0.3659417207543103
H 2.0200357523056955 3.3599783944556214 1.6040556930819272 -0.3563720772992872
O 7.581263197929667 2.0295637856754905 3.3429496421051375 0.6881476785425675
H 7.555854773059547 2.88072452368009 3.914555939132495 -0.3195651310808125
H 0.027415739540068897 2.3735355954439408 2.5580978957238227 -0.3628092925659363
O 4.685290490882098 3.6832343894611657 5.568039169708294 0.6707702251172563
H 5.572218147017925 3.973214745145636 5.87063527108039 -0.34555097875830687
H 4.244113102268882 3.4208560385471967 6.371496940639809 -0.34994690342339996
24

O 4.108147216875803 2.300762520143308 3.2588576920654 0.7329453270943438
H 4.284271898353237 2.6583286799676813 4.136406965120412 -0.3863099208959563
H 4.366973127655288 2.9455606820811115 2.6538847955939486 -0.36051064973423597
O 2.370412302985704 0.8960110017579195 2.1843083840763216 0.7315998705776947
H 2.8506222398550434 1.4343597217518027 2.71822613323943 -0.39749290706006
H 3.0008325530856874 0.28071816865618787 1.8136410919875827 -0.3491794358035646
O 2.166682365178215 1.00001448867143 5.330780326008089 0.6838340255497133
H 1.3768331067625832 1.0155921866186963 5.877615927300681 -0.33675997549875913
H 1.826092354976848 1.6500339659936964 4.664252921222876 -0.3503122843505857
O 1.9341765380609626 6.7238557137766275 3.559370764361599 0.772872149878084
H 1.6889454544077858 7.66520349472358 3.1121282159343804 -0.3718685847111791
H 2.1204517144972983 6.961937431385008 4.455852319721563 -0.3554308963842193
O 4.631429508739668 5.73213217936763 2.5938175958700476 0.7051207725724575
H 5.186005701088381 6.5476411779133565 2.7282097059945545 -0.33374098724931167
H 3.834050072479727 6.039301127462002 3.0135221419281524 -0.3607541622933911
O 1.3438061809909534 3.9202714496965725 1.9076047666707936 0.7177870916506859
H 1.6618618485474972 4.8574484060349805 2.0178012664772016 -0.3660659906682724
H 2.024744862151472 3.3617710167553705 1.607733952487354 -0.35557405793244756
O 7.58076431511386 2.0300731145711564 3.3435062062688687 0.6875180385548421
H 7.560844603091599 2.882711129351651 3.9114232765985912 -0.3195907638533858
H 0.03353594578744985 2.3825852719495075 2.555781974402317 -0.36160038711564835
O 4.68469666853458 3.6815953675918527 5.568403842997398 0.6717521972020826
H 5.566228273629396 3.9674196192530657 5.873016320331997 -0.3458303090175058
H 4.259303035620697 3.429837948891108 6.354806594422162 -0.35240816051138224
24

O 4.108704439096614 2.3006031389213097 3.256853948284928 0.7348839966869178
H 4.277871049186294 2.6645898679861206 4.14646759229052 -0.38559109995681395
H 4.3631941012734154 2.9524864161245428 2.658379009050732 -0.36077337880167726
O 2.3702881762577745 0.8968449816522113 2.184062990698809 0.7267153620014253
H 2.843976327823411 1.4365519571319951 2.719351391739387 -0.39792449900594673
H 3.0055328397743404 0.2872903790522191 1.8141287199804619 -0.35026737303073807
O 2.1674975816325968 1.0009010047332398 5.330821546330215 0.6838847111510662
H 1.3753853437914592 1.0141084607425317 5.874109898280661 -0.33680436762189025
H 1.8261218598092863 1.6458930231747366 4.664420740283377 -0.3502044587333304
O 1.9346030088694601 6.722349445014082 3.5583633558308816 0.7763759515536823
H 1.6884320757217828 7.683189493433584 3.1060123428896214 -0.36989598872381
H 2.116840353544582 6.957244500983659 4.453570937652514 -0.355469395008137
O 4.6301041013075395 5.730969964052664 2.5946694249256654 0.7064598690458557
H 5.1773143940306605 6.541390463695737 2.724523380417137 -0.33500737465770236
H 3.8339043268427373 6.046967124565032 3.013274255418636 -0.3605132544370211
O 1.3440958288684204 3.9198033639733283 1.9098900236802356 0.716535742814713
H 1.6695065848698798 4.85395360211699 2.0202626462039874 -0.36628351793824176
H 2.0303893961128683 3.362897845469203 1.6110826791939215 -0.35463543104710427
O 7.580278733493484 2.030690258791612 3.3441122005424053 0.687219182961921
H 7.565716061177457 2.883305788789648 3.9075858105476415 -0.3199221994275706
H 0.03967305272350037 2.3913871578101413 2.5534132589851684 -0.36037416215754137
O 4.684172325253769 3.6799859698250184 5.568736548609752 0.6723784706626392
H 5.5599049480493505 3.9615521281092083 5.875023777517937 -0.3462653241732522
H 4.273714105058616 3.438413410096282 6.339042305732085 -0.35452146215742597
24

O 4.109259821447276 2.300401612598671 3.2549285746441043 0.7361685914179221
H 4.271473890384112 2.670796990289153 4.156516872811423 -0.3849634508515225
H 4.359885697746425 2.960541647499579 2.66183527490886 -0.3609702643246516
O 2.3700376243252443 0.8975562191413631 2.1836762433086356 0.7227325834268861
H 2.838874044251104 1.440685776374097 2.722446597374167 -0.39831512439469274
H 3.010291178696861 0.29373570769208085 1.8144821184207591 -0.3513065281840996
O 2.1682643557017514 1.0018381173590383 5.330830523495593 0.6840429402719526
H 1.3739983309140977 1.012254459018682 5.871029559000956 -0.33685727521822084
H 1.8268094046345946 1.6412717312044889 4.6646577565510805 -0.35023457963806603
O 1.9349920620634102 6.720934618858371 3.5572525464582343 0.7797361182930007
H 1.6884508064335446 7.699268859965795 3.100657891340495 -0.3682047941033736
H 2.113426445908887 6.952752751535454 4.452196645780249 -0.35531906023636284
O 4.628823999360327 5.729862648083329 2.595523187646788 0.7080071446350358
H 5.168586571784608 6.534419230787022 2.720585658733683 -0.33644708036767634
H 3.832900636442061 6.054487628566533 3.0132544911081665 -0.360231755203993
O 1.3443451604227095 3.9194244927884028 1.9122011462098243 0.7151996123944133
H 1.6768883492589401 4.849614787821323 2.0227311226165683 -0.36657812665079503
H 2.0368857989905247 3.363406725270134 1.6141351927412395 -0.35356216621245407
O 7.579815236300521 2.0314191575293927 3.344752459633461 0.687257435586796
H 7.57044614243311 2.8825535874806048 3.90310661449402 -0.32054490620433074
H 0.04571411622782572 2.3998374579737285 2.551168272816925 -0.35916482681738937
O 4.683739193550564 3.6784204716370854 5.568984009256335 0.6726493364116111
H 5.553396712763372 3.9556640774462495 5.876661453047922 -0.346847388803171
H 4.286850306353948 3.446305300104148 6.325048707385038 -0.35624643522678134
24

O 4.109816978066229 2.3001669849675315 3.253098334018504 0.7367560838229732
H 4.265032764523451 2.6768192540948017 4.166255452059258 -0.3844538096975729
H 4.357032353804788 2.969708944745994 2.6642802796799874 -0.3610840077271381
O 2.3696626177516658 0.8981479406224445 2.183151238258358 0.7197356887922572
H 2.83526880123651 1.4467273936994751 2.727477132657861 -0.3986296325295626
H 3.0151264099611983 0.30004033019645815 1.8146934499766763 -0.3522491120351149
O 2.1689840584735616 1.0028218242900064 5.330811388718657 0.6843064594962631
H 1.3726777577995466 1.0100276017522503 5.8683761877386145 -0.33692296193952687
H 1.8281263518783082 1.6362393830623778 4.6648981399580025 -0.3503927257540532
O 1.9353410862707328 6.719620166378249 3.5560288008345826 0.782822766392
H 1.689043156254661 7.713278178046387 3.0961329844510157 -0.36684306664142174
H 2.110220652547183 6.948479779624413 4.451806967311481 -0.3549723130433201
O 4.627574535928632 5.728799685362992 2.59637966001408 0.7097037737122509
H 5.159999724566751 6.526938307495816 2.716422399875716 -0.3379973123665726
H 3.8310882581826857 6.061817996616929 3.0134259234471275 -0.35991610739792534
O 1.3445624573488042 3.9191265954788985 1.9145343803260992 0.7137827064303521
H 1.6839927273996862 4.844487442294115 2.025220034616625 -0.3669298918121575
H 2.0441155956865784 3.3633708813150225 1.6169387328350133 -0.3523627561795526
O 7.579382026589693 2.0322616328641114 3.3454118071315353 0.6876287651537314
H 7.57501244228286 2.880527577507856 3.8980662406252646 -0.32143590642137887
H 0.05155443273034236 2.4078379356872834 2.5492063776110796 -0.3580075837895039
O 4.683418102399674 3.6769127901783087 5.569090300703697 0.6725436317088076
H 5.546871215985239 3.949812195285757 5.877941487016908 -0.347570121986989
H 4.298210866150202 3.453237429421549 6.313704538352958 -0.35751256618688954
24

O 4.11038000194245 2.299910871357173 3.251374745498962 0.7366060065443656
H 4.258512003610395 2.6825397952147876 4.175420585647227 -0.384082201372849
H 4.354599025653831 2.9799160550744763 2.6657876965877088 -0.36110104011199207
O 2.369170070195947 0.8986293267729166 2.1824971402888784 0.7178483579865576
H 2.8330357053572732 1.4545451582775375 2.734311092312298 -0.39884980560162187
H 3.0200566123365324 0.30619234555805075 1.8147567049171174 -0.3530836691243745
O 2.169658318161887 1.0038473079874657 5.330769334849426 0.6846685480971195
H 1.3714342940729942 1.0074273594245142 5.866145037513008 -0.33700518197056384
H 1.8300350980973428 1.6308757717965 4.665065278769192 -0.3506644030547116
O 1.9356488648182768 6.7184129337535525 3.5546866783690425 0.7855006043007222
H 1.690238785074587 7.725099380729721 3.092482312837972 -0.3658363311534062
H 2.1072245867091626 6.944432793239232 4.452436554155898 -0.3544293456576322
O 4.626338756452612 5.727769165614041 2.5972400366052444 0.711466382350717
H 5.151746253656897 6.519186885896206 2.712062471594657 -0.33959502943998154
H 3.828537312660182 6.068906787221276 3.0137420232912464 -0.35955061785102427
O 1.3447572505647178 3.9188988320546083 1.9168851535863447 0.7122959636263386
H 1.6908135055478146 4.8386489313521155 2.0277448800684357 -0.36731757635695317
H 2.0519322301790215 3.362882797940424 1.6195510640265818 -0.3510513362339933
O 7.578986585815649 2.033217242882539 3.346075209256519 0.6882880543442991
H 7.579393570193654 2.8773293003499347 3.89256273385912 -0.32253515527380927
H 0.05709929637780395 2.415297605828158 2.5476673355792534 -0.35693595948391
O 4.683226700248122 3.675475138160614 5.569001209687879 0.6721462598975403
H 5.54051359586021 3.9440573891306783 5.878884748161421 -0.3484231302960352
H 4.307328132069424 3.4589569386228733 6.305852844559932 -0.358359394164796
24

O 4.110953315161272 2.2996471234266336 3.249764513070344 0.7356819604968159
H 4.2518873101179935 2.6878575141644694 4.183788551427746 -0.3838664260071075
H 4.352534494605507 2.9910411636791494 2.6664710847116018 -0.36101384189800645
O 2.3685709252182567 0.8990145622757504 2.1817282193690755 0.7171077340688963
H 2.8319881489596352 1.4639243892252396 2.742733591013634 -0.3989343920293166
H 3.0250978573855614 0.3121827633540056 1.8146682031535846 -0.35377634738447283
O 2.1702890041062908 1.0049090303544175 5.330710511960199 0.6851216494115719
H 1.3702830726245943 1.0044554011369222 5.864325649987991 -0.3371077890505353
H 1.8324898145828095 1.6252695230194043 4.665073111273116 -0.3510336626570907
O 1.9359153919351308 6.717318234237562 3.5532246808910033 0.7876621563258952
H 1.6920577490391826 7.7346507881764355 3.089731949323435 -0.3651962048393016
H 2.1044310350649016 6.940607970122011 4.454075195382264 -0.35370100855573194
O 4.625097998485736 5.726758070579514 2.598105837126664 0.7132840930029174
H 5.144028895344472 6.5114264592681925 2.7075364689273487 -0.3411771237996385
H 3.825334064521063 6.075697862478292 3.01414934553309 -0.35919636424274304
O 1.3449398534072718 3.918728257882149 1.9192483001278138 0.7107595111663021
H 1.6973528117969798 4.832196943103161 2.0303231642626094 -0.36771844174858326
H 2.06016839304891 3.362048024828425 1.6220370296430977 -0.3496509499893712
O 7.578635587903096 2.034283166644584 3.346727822959611 0.6892724780607684
H 7.583569738286958 2.8730893706350202 3.8867118387871313 -0.32386791137478077
H 0.062264866504069885 2.4221337284423377 2.546670417199484 -0.3559819455130486
O 4.683175480358852 3.6741156356760696 5.568672263752451 0.6715229200509332
H 5.5345230443942635 3.938463421315749 5.879520626569828 -0.34939373464341217
H 4.313833462208641 3.4632719129923357 6.302171764181565 -0.3587963588509653
24

O 4.111541440503633 2.2993912311299316 3.2482700860424263 0.7339738537390943
H 4.245141537028338 2.692680504136414 4.191165490606609 -0.3838143068396038
H 4.350775702745816 3.0029215442623554 2.666474104943027 -0.3608267002680583
O 2.3678789041858708 0.8993213712038742 2.1808624064674693 0.7175012628296329
H 2.8318997215310837 1.4745900991492884 2.752468854520479 -0.3988355653022406
H 3.0302628150030078 0.31800657253570097 1.8144271039953574 -0.3542919246647004
O 2.170878201294946 1.0060008622296248 5.3306418788491925 0.6856579370285167
H 1.3692429565579796 1.001115731169515 5.862902311126004 -0.33723596702622705
H 1.8354375628603457 1.6195158790767141 4.664828037653355 -0.35148257502452607
O 1.9361416765655899 6.716340291920022 3.551644965182855 0.789227387741001
H 1.6945123427342335 7.7418793657981055 3.0878934054536016 -0.36492900571422116
H 2.1018247540920503 6.936990990042855 4.456668680598952 -0.3528060498427493
O 4.62383259578943 5.72575268296477 2.5989788218356256 0.7150618103027298
H 5.137054596945334 6.503932174537122 2.7028751687175454 -0.34268333471865087
H 3.8215764226885915 6.082132299256489 3.0145904364818747 -0.35882991170555145
O 1.345120846255755 3.9186003642013527 1.9216183011562775 0.7091998558468544
H 1.703621107922999 4.825247615189874 2.0329742384064176 -0.36810718302307277
H 2.0686442615137928 3.360978544495294 1.62446489519047 -0.3481923198989091
O 7.578334810971414 2.035454136833402 3.3473550813777644 0.6904931583750744
H 7.587522812132317 2.8679675396878603 3.8806464803055807 -0.32533755836705835
H 0.06697919587623952 2.428272915508618 2.5463132944816187 -0.3551743573442774
O 4.683265364896538 3.672837278200583 5.568075652564392 0.6707403530488252
H 5.529107129237589 3.9330949632609586 5.879886141764361 -0.3504572351757562
H 4.317504329810526 3.466076817477843 6.303075624451955 -0.3588516239961339
24

O 4.112148778715814 2.2991596696798475 3.246890475586175 0.7315103279318744
H 4.238269188567474 2.6969391353463656 4.197404558158622 -0.38391879728419376
H 4.349252397902395 3.0153643930165357 2.665959752033605 -0.36055058300955867
O 2.3671091810444445 0.899569338860123 2.1799196372666043 0.7189955763835065
H 2.832527245191169 1.4862331204994381 2.7632058606566114 -0.3985120940349147
H 3.0355593551104407 0.3236637220203644 1.814035857614839 -0.35460630315404307
O 2.171428171015121 1.0071162504726863 5.33057099692594 0.6862665872329867
H 1.368335627392438 0.9974147950199167 5.861854629662018 -0.3373945955803972
H 1.8388197924213794 1.613713907008866 4.664231490291847 -0.35199023163707044
O 1.93632956767748 6.71548246889184 3.5499529746769607 0.7901178916349698
H 1.6976083750798425 7.746755761197856 3.0869664820538403 -0.36502281321733454
H 2.0993836553524265 6.933558334643492 4.460122168181968 -0.35176462566441635
O 4.622522720533821 5.724739266357455 2.599860951479081 0.7167390811139929
H 5.131025660359942 6.496979626603788 2.698107487903434 -0.34405754457342996
H 3.817369229277774 6.0881508414767715 3.0150064369071243 -0.35846121119579943
O 1.3453105861335568 3.918499638176766 1.92398951908599 0.707644950066932
H 1.7096368749785482 4.817933006747522 2.035719059800318 -0.3684598159534662
H 2.0771756485531703 3.359786501091219 1.6269028932990146 -0.3467077396467325
O 7.5780890741493225 2.0367224428441837 3.3479427634785686 0.6918980279818303
H 7.591236906407284 2.8621518668850725 3.8745161166120354 -0.3268874654252558
H 0.0711827000763634 2.4336517247914453 2.5466718267917483 -0.35453772875127276
O 4.6834858069006415 3.671636247287845 5.567203728491978 0.6698086490748794
H 5.524473959812408 3.9280150543801473 5.880024128469701 -0.3515799235232958
H 4.318296271683144 3.4673680440559367 6.308641818027628 -0.3585296187697481
24

O 4.112779420648937 2.298969276873319 3.2456219731520863 0.7283072261565471
H 4.2312727171269096 2.70057968649167 4.202395904942382 -0.3841600552847372
H 4.347891149432644 3.0281571606131563 2.665100884084056 -0.36019669986822833
O 2.366277216845392 0.8997783296162453 2.1789202701282018 0.721535001541584
H 2.83363107000512 1.4985349607657352 2.774622627945617 -0.39793705222204434
H 3.0409893188664006 0.3291598272871921 1.8135005349206945 -0.3547047263839851
O 2.171941304019878 1.0082484130806861 5.330505802574986 0.686934620080994
H 1.3675845445322918 0.9933615459922737 5.8611582160698 -0.33758720077278725
H 1.8425741261541417 1.607963341297557 4.663183011751926 -0.3525346984881451
O 1.9364815732151168 6.714747404990313 3.548156956480426 0.7902692036183843
H 1.7013460177467468 7.74927005038851 3.086941734103842 -0.3654537782285948
H 2.097080326227597 6.930279075904343 4.464305828228929 -0.35060115532747416
O 4.621149246762006 5.7237047984799405 2.6007543465275478 0.7182688850760637
H 5.126130636441977 6.490830962026209 2.6932586214877547 -0.34525291018130855
H 3.812819872165943 6.093696149152554 3.0153395404847556 -0.35810738230072237
O 1.3455187892908886 3.9184101053527254 1.9263564049616446 0.7061256193767029
H 1.7154259488945949 4.810397914774049 2.038579892116966 -0.3687543426281801
H 2.0855813306788646 3.3585788526182467 1.6294162567982278 -0.3452323036189826
O 7.577902202117397 2.0380779122799177 3.3484769935285628 0.6934357327354324
H 7.594698775210065 2.855858561519704 3.8684864206906235 -0.328464800074195
H 0.07482831793821025 2.438217033585749 2.5478003689854347 -0.35409122512751345
O 4.683815104919296 3.670502435479452 5.5660711405693 0.6687362150505549
H 5.520822992349033 3.923282249623786 5.879980816174129 -0.35271843616879917
H 4.316349451799308 3.467244182902839 6.318587378391188 -0.3578157369605257
24

O 4.113436973408078 2.2988365833766173 3.2444589081416035 0.7244278773378603
H 4.224158591056015 2.703557662171641 4.206056076985298 -0.38451305061995833
H 4.346619282997263 3.0410789057133742 2.6640706722904905 -0.359786264518568
O 2.365398038084621 0.8999674037573331 2.1778839831936683 0.7250188092580512
H 2.834987893415843 1.5111850007586467 2.7864033401392594 -0.3970937938604977
H 3.046547601762336 0.3345065420954489 1.8128309878838542 -0.3545763490995717
O 2.1724200555266115 1.009390565066046 5.330454314939159 0.6876503937695873
H 1.367013824280158 0.9889674608997655 5.860785439409691 -0.33781806182576246
H 1.846636481463123 1.6023609711952311 4.661583985735096 -0.3530944921608371
O 1.9366006907118616 6.714137042221408 3.5462674182239 0.7896612326509449
H 1.7057198659039408 7.749428836987683 3.08780217778011 -0.36620277424105463
H 2.094883737958902 6.927116954906055 4.469062157902064 -0.3493507452329444
O 4.619694727329756 5.7226379085938985 2.6016612695081176 0.7196087148799553
H 5.122533442291501 6.485718091343382 2.6883481732850267 -0.3462351976674456
H 3.808034289479258 6.098714876291747 3.0155351426254433 -0.3577799760640905
O 1.3457542492560783 3.918315818800656 1.9287136583196645 0.7046750912162374
H 1.7210204434412306 4.802795968964077 2.041579927388334 -0.3689701722024822
H 2.093688640012156 3.3574535735976685 1.6320650911229309 -0.3438052131854489
O 7.577777003885248 2.0395081014506657 3.348944354540621 0.6950408576214504
H 7.597898116656448 2.8493285389014695 3.862736904379084 -0.33000640103497947
H 0.07788159945668294 2.4419263689197845 2.54973220558565 -0.3538475273671914
O 4.684223700462128 3.669421585964404 5.564711194356202 0.6675055898420517
H 5.518333614555109 3.918947250918762 5.879802371498479 -0.3538200493969681
H 4.3119504781372635 3.4658811909878113 6.332338387948659 -0.3566884980983167
24

O 4.114124446201442 2.298777240367867 3.243394322448646 0.7199895175085567
H 4.21693802087812 2.7058410171525553 4.208331324077898 -0.3849511900446174
H 4.345368079657276 3.053910508207857 2.6630346578402917 -0.3593499803883655
O 2.3644856648246653 0.9001539123086365 2.1768288461028398 0.7292775692071805
H 2.8364003379772296 1.5238949184255874 2.798252735497923 -0.39596648729955297
H 3.052221620238008 0.3397215644141293 1.812040780686664 -0.3542028914077149
O 2.1728668613642457 1.0105361826154433 5.3304243002402165 0.6884056680877528
H 1.3666470836548072 0.98424650051473 5.860706243768734 -0.3380926110246052
H 1.850943544023649 1.596996484645548 4.659342163498612 -0.35365019519465657
O 1.936690258056802 6.713652558154696 3.544296565824789 0.7883209570331291
H 1.7107192555777295 7.747254031694028 3.0895243294747323 -0.3672561303830568
H 2.092760967608218 6.924032570784635 4.474214228078098 -0.3480570556004483
O 4.618144340229854 5.721529898940457 2.6025841144011395 0.720716538622926
H 5.120361726909545 6.481824627470532 2.683388585771676 -0.34698042434730514
H 3.8031136494458586 6.10315944640347 3.015543557201942 -0.35748250066595866
O 1.3460246388231472 3.9182013439144168 1.9310563665895373 0.7033265249810408
H 1.7264572102198188 4.7952850045696165 2.0447428006844524 -0.36908829306805013
H 2.1013381825153927 3.3564966430687555 1.634902670042786 -0.342468037383149
O 7.577715246974231 2.0409986631753982 3.349332137519357 0.6966373718104062
H 7.60082774164797 2.8428210860307437 3.8574567772840993 -0.33144144986148605
H 0.08032097533593255 2.4447483503777843 2.552479672295354 -0.3538127224704851
O 4.684676526041564 3.668376348908728 5.563172603934209 0.6660665745603427
H 5.517152651722922 3.915049388942506 5.879530624408524 -0.3548282676800577
H 4.305505813025349 3.463514882248822 6.349079748447966 -0.3551124849918261
24

O 4.114844215994253 2.2988056271556876 3.242420453396336 0.7151247623846695
H 4.209626111838712 2.707409583166716 4.209195781852267 -0.3854433970523091
H 4.344074841909847 3.0664421165522153 2.6621455039971766 -0.35891617988120095
O 2.363552809501538 0.9003529615883317 2.1757707807032043 0.7342121730477422
H 2.8377011772896696 1.5364071351163897 2.8099047960023693 -0.3945891291932555
H 3.0579912343918716 0.3448282713861457 1.8111468892825153 -0.35361593971267946
O 2.1732840483265585 1.0116792753380637 5.330422910791937 0.689194057963763
H 1.3665063005868878 0.9792150039048674 5.860888991476553 -0.3384153782120608
H 1.8554353070871388 1.5919482432032117 4.656376520107843 -0.3541851398469107
O 1.9367538296444415 6.713294230756637 3.5422577645837032 0.7862903255632785
H 1.7163283262649793 7.742782912147516 3.092078581012325 -0.36860103992143334
H 2.090678795539251 6.920985480104476 4.479574110005353 -0.34676426283085826
O 4.616486686878242 5.7203756275844215 2.60352537589444 0.7215578264364608
H 5.119696911949629 6.4792704403054 2.678384376508425 -0.3474719338602833
H 3.798151785339196 6.1069894459717045 3.0153212702421146 -0.3572190869529427
O 1.346336406412356 3.918052224352343 1.933380119723244 0.7021081580436208
H 1.7317758685209743 4.788021878374592 2.0480920042867687 -0.369093234063794
H 2.108387486468823 3.3557799217018918 1.6379742341340364 -0.341258585696935
O 7.577717636584956 2.042533828297901 3.3496286687664525 0.6981539741126173
H 7.603483570374804 2.836605790082612 3.85283980052646 -0.33270674547491286
H 0.08213808833073998 2.4466631232755334 2.5560341558559405 -0.3539852820683167
O 4.685138996745077 3.6673494478359787 5.561508960569192 0.6644395816634929
H 5.517382901251707 3.9116136039580005 5.879198628671456 -0.3556922619912022
H 4.297458071043262 3.460393513593826 6.36792599236204 -0.35312326245649417
24

O 4.115598015120474 2.2989345071040534 3.241529103919538 0.7099827883343979
H 4.20224079233715 2.7082539078276104 4.208649133865527 -0.3859602954642306
H 4.342684484976157 3.0784795476556135 2.661538855372121 -0.35850594698281
O 2.3626109424369033 0.9005774052457375 2.174723468634728 0.7396280733237477
H 2.838751720251536 1.5484957713842533 2.8211240330252325 -0.39297929622282646
H 3.0638290733360742 0.34985499983467466 1.8101692430108205 -0.35281853218063475
O 2.173673747824269 1.012814647413581 5.330456325248572 0.6900126156487363
H 1.3666107481314484 0.9738915133803705 5.861301290942626 -0.33878980553845284
H 1.8600574884892818 1.587279314401365 4.652622114819139 -0.35468695888069357
O 1.936795090345967 6.7130612606509255 3.54016509401427 0.7836332633490319
H 1.7225256181923427 7.736068991684558 3.0954291528444404 -0.37021337363447215
H 2.088604996838218 6.917935916260671 4.484950282005341 -0.34551368790501935
O 4.614714363959773 5.719174124935523 2.604487588105712 0.722113849572283
H 5.120567161160453 6.478100964209611 2.673332371795044 -0.34770053081163477
H 3.793233455360288 6.11017255891289 3.0148316938446 -0.35700055613834614
O 1.3466947639860924 3.91785540068389 1.9356810966406484 0.7010396965719561
H 1.7370165465365637 4.7811570802958965 2.0516502488190183 -0.3689730851953955
H 2.1147134683970226 3.355359960117711 1.6413162714469083 -0.34020840876140035
O 7.577783807083373 2.044097150358197 3.3498238141850094 0.6995349968548772
H 7.605864349095126 2.8309502133185767 3.849076469367352 -0.3337559962516162
H 0.08333823219644135 2.4476628963838025 2.560365940263382 -0.35435703180259637
O 4.685579507252536 3.666324897943823 5.559774954804351 0.6626103217132011
H 5.519074518912885 3.9086484159991293 5.878826929596292 -0.35636895488567266
H 4.288255132637553 3.4567607286664863 6.387985957423854 -0.3507231447123704
24

O 4.116386974933712 2.299174833714005 3.2407118495523086 0.7047254742882982
H 4.19480191207106 2.708374402852614 4.206714862372651 -0.3864693791646221
H 4.34115013397714 3.0898485456533344 2.66133131132256 -0.35813683747247027
O 2.361670341124231 0.9008378885241332 2.1736983718616214 0.7453461968882393
H 2.839439414963142 1.5599664659896 2.831705772350932 -0.391175745734307
H 3.0697012844098532 0.35483356722660364 1.8091301544669707 -0.3518375078323438
O 2.174037824498092 1.013938126580069 5.330529417024093 0.690859508998974
H 1.366976037167512 0.9682965314282402 5.861910783226735 -0.3392179354557662
H 1.8647636114076642 1.58303410387721 4.648034556172317 -0.35514594258316234
O 1.9368178768616948 6.712951523822326 3.5380330081180444 0.7804352376394796
H 1.7292835977879868 7.72718464843234 3.0995332228670556 -0.37206247536367654
H 2.086509393646129 6.914846193248035 4.490154239725736 -0.34434716958588085
O 4.612824155392629 5.717928821581248 2.605473215241114 0.7223790815461215
H 5.122944348813557 6.478283039936216 2.6682229557998207 -0.3476668965113954
H 3.7884334175822643 6.112684957359614 3.0140454406896406 -0.35683814591416807
O 1.3471037851257397 3.9175996008754552 1.9379561239992154 0.7001347951644392
H 1.7422171601721188 4.774828806764593 2.0554387209603817 -0.3687204206150819
H 2.120213624119113 3.355277782126043 1.6449563646103833 -0.33934382002993835
O 7.577912322693591 2.0456723298570703 3.3499095452860512 0.7007323929426998
H 7.607971109383259 2.826106167332778 3.8463453155070977 -0.3345530921689832
H 0.08394107934814246 2.447752660785197 2.56542388215837 -0.35491199398231965
O 4.6859720109910485 3.665289253223464 5.558021803252742 0.660607491121882
H 5.522220260046305 3.906145133525912 5.8784209096822275 -0.35682102784457703
H 4.2783142203432485 3.4528369833353056 6.408438364192792 -0.34797178833142695
24

O 4.117211711815032 2.299535712347946 3.23996007905563 0.6995294368344118
H 4.1873305836845605 2.7077809505157 4.203439343410592 -0.3869501893269043
H 4.339433196454142 3.10039524554512 2.6616205886774784 -0.35782478250535066
O 2.360740222382335 0.9011430661283688 2.1727049091842967 0.7511669787047002
H 2.839673931086242 1.570653776704473 2.841474036869417 -0.3892211735667376
H 3.0755684416653626 0.35979875952356677 1.8080535062533516 -0.35070623864964623
O 2.1743778294298886 1.0150467393345786 5.33064547614378 0.6917107493110011
H 1.367613305458587 0.9624522221221646 5.862685865988452 -0.33968833021743716
H 1.8695165492876125 1.5792359072344826 4.642593690845073 -0.3555441391169065
O 1.9368260915956728 6.712961267666851 3.5358760453081617 0.7768131964634333
H 1.7365681548708447 7.71622459019617 3.1043396536572385 -0.37411332241939477
H 2.084364672935124 6.911681802178624 4.495006268661074 -0.343306859382005
O 4.610817066623086 5.716647354030963 2.6064845195739843 0.7223510611635948
H 5.126745513479481 6.479707883690378 2.6630421141068004 -0.34738060809550164
H 3.783815522770657 6.114511642247206 3.012940544815334 -0.3567340508335546
O 1.3475665355949729 3.9172757079287313 1.9402027288335766 0.6993792565847905
H 1.7474105199989198 4.7691571369944175 2.059476291401888 -0.3683092095362971
H 2.1248068674556397 3.3555589128877665 1.6489131714799858 -0.33868661936796896
O 7.5781006848986205 2.0472440885055 3.3498805513118293 0.7016991767770622
H 7.609806429157296 2.8222951434885477 3.8448035815865054 -0.33506494422607624
H 0.08398146797225084 2.4469508992108935 2.571134867203281 -0.3556275752996586
O 4.6862971608628 3.664232089805021 5.556294951731117 0.6584923785362364
H 5.526755325979544 3.9040784197915035 5.87796976502607 -0.3570185426729827
H 4.268003978644628 3.4488113972732783 6.428569524563092 -0.3449656491588564
24

O 4.118072393682023 2.300024318597717 3.2392650225389112 0.6945766794783288
H 4.179848690397524 2.7064929252020993 4.198891831913178 -0.3873891950248819
H 4.33750352939711 3.1099873390498933 2.662485269595798 -0.3575830605341126
O 2.3598288550803135 0.9014998392062943 2.171750667567817 0.7568732923127233
H 2.8393833106636843 1.5804182335728176 2.850279070459917 -0.387158100038115
H 3.0813875156044643 0.3647879047269233 1.8069640744074393 -0.34946121486574566
O 2.1746949885225444 1.016138803464176 5.330806019360365 0.6926240336856049
H 1.368528564072397 0.9563820669096128 5.86359634377727 -0.3402293250812428
H 1.8742893788268589 1.5758856432768693 4.636306136283548 -0.3559053079064455
O 1.9368237176378493 6.71308470236615 3.5337086871049936 0.772897762543759
H 1.7443378765145643 7.703311652647017 3.1097866457293946 -0.376320570896328
H 2.082146924471644 6.908412149228992 4.4993399471307525 -0.34242634146572104
O 4.60869800073812 5.715340952980765 2.6075234050796485 0.722034449694984
H 5.131838613898931 6.482200717847232 2.6577739283633206 -0.34685769665167177
H 3.779432179539261 6.115646551040283 3.011502470467798 -0.3566864617594667
O 1.3480852019045222 3.9168770896181986 1.9424191897623455 0.6988208911725164
H 1.7526215190319958 4.764238982651228 2.0637785481102218 -0.3677877761114139
H 2.1284342920205246 3.3562134385775995 1.6531964384536018 -0.3382504540870366
O 7.578345335359202 2.048799163506671 3.3497349704593122 0.7023955870334346
H 7.611373489532054 2.8196917677004145 3.8445764592100087 -0.33526745520178014
H 0.08350944122921901 2.445290095605468 2.5774029291008382 -0.3564748271607485
O 4.686542463523018 3.663146014889072 5.554633158542463 0.6563256144120586
H 5.532561632871137 3.9024080936018484 5.877447251048467 -0.35694400193242304
H 4.257637852377981 3.4448396759719677 6.447786818301147 -0.3418065216162858
24

O 4.118968808601185 2.300645855003379 3.2386177107544456 0.6900291209507008
H 4.172378583513714 2.7045396232948193 4.193165169891701 -0.3877758921091007
H 4.335338910969982 3.1185162768232777 2.6639848553797245 -0.35741479209501903
O 2.3589436451228374 0.9019135937319588 2.17084162789706 0.7622504878228276
H 2.8385104512102095 1.5891433740824228 2.857994799323794 -0.3850330452909807
H 3.0871126950671193 0.36983778719358507 1.8058869067777978 -0.34814392684169804
O 2.1749902168795563 1.0172139786066259 5.331010669228667 0.6935700021336779
H 1.3697223037507056 0.9501104652240334 5.864613940515137 -0.3408214935031677
H 1.8790654949540195 1.572961866034487 4.629206371823808 -0.35621510629948194
O 1.9368148644220144 6.713313522082941 3.5315453556539573 0.7688230844077226
H 1.7525433026752806 7.688604199290855 3.1157986366762844 -0.3786222554716422
H 2.0798358772432564 6.905010888091205 4.503005073230017 -0.3417309435169843
O 4.606475193834004 5.714023520753457 2.6085912680900183 0.7214513431361931
H 5.138051768990799 6.485535549492972 2.6524031249191373 -0.3461217294350152
H 3.7753241007000473 6.1160924619791865 3.00972395764166 -0.35669771475822065
O 1.348661222245393 3.9163998488285974 1.9446045750083354 0.6984194661701233
H 1.7578645974732328 4.760143466576224 2.0683574052381504 -0.3671298741872744
H 2.131059691791264 3.3572362155892956 1.6578071220598838 -0.3380393327159663
O 7.5786416668546455 2.0503271593896817 3.3494750243788176 0.7028030574997384
H 7.612675147884023 2.8184097432209456 3.845747618131488 -0.3351531370517308
H 0.0825919790250353 2.4428177551674906 2.584108837306028 -0.3574254603228386
O 4.686701670444559 3.6620263337184724 5.553068556376851 0.6541679735405137
H 5.53947586443586 3.901081911607337 5.876813938120312 -0.35659268474209815
H 4.2474754390116916 3.441046244734251 6.465614939283428 -0.3385971473202676
24

O 4.119900431830381 2.301403537137594 3.2380088551893964 0.6860297482726783
H 4.164941858357588 2.701959116070803 4.186374516405845 -0.38809750926315756
H 4.332924788802568 3.1258964773495395 2.6661607488681835 -0.3573162611114865
O 2.3580912249616905 0.9023884730533485 2.1699824365349616 0.7670969543283892
H 2.8370095937722923 1.5967323473475843 2.864515758613293 -0.38289646794027443
H 3.0926967700199453 0.3749840024252528 1.8048464560950628 -0.34680259386920653
O 2.175264179088572 1.0182731976644255 5.331257169252935 0.6945516440750832
H 1.3711892635687417 0.9436623418777138 5.86571269638747 -0.3414606649533436
H 1.8838379600491457 1.5704221286325033 4.621356298717335 -0.35647680364243384
O 1.9368038130304603 6.713636450869531 3.5294004793101728 0.7647106643028747
H 1.761126528159835 7.672303398261462 3.122283238046414 -0.38093674397848853
H 2.0774149282557173 6.901455993899154 4.50586935862568 -0.34123177660324233
O 4.604159495435755 5.712710525328359 2.609688872125009 0.7206411313933305
H 5.145184759184715 6.489453040649979 2.646917327180762 -0.3452043619096402
H 3.7715202178945924 6.115860763180764 3.007604774591717 -0.3567736828711544
O 1.3492953863262884 3.915842990383391 1.9467587701643585 0.6981603437862476
H 1.7631418624996182 4.756909239653853 2.0732203000256226 -0.3663445722035581
H 2.132669819248974 3.358607218527972 1.662737622830932 -0.33804953377233793
O 7.578984049349106 2.0518211417990035 3.349107454910681 0.7029143118743382
H 7.613713194653612 2.8184922120981675 3.848352181604807 -0.33472918273154073
H 0.08131339317778102 2.439596714872043 2.591110186213892 -0.3584449489473025
O 4.686773735105205 3.6608706327289675 5.551627563436411 0.6520810152823009
H 5.547299756579077 3.900038873909698 5.876020488941829 -0.35597296212721774
H 4.2377293888567165 3.437528999517043 6.481680297623267 -0.3354477473909161
24

O 4.120866479538885 2.302298567067797 3.237428713075884 0.6826986598864235
H 4.157556686175705 2.6987946484176835 4.178652695658997 -0.3883417261845419
H 4.330253908010487 3.132065049812258 2.669037084101324 -0.3572822696997193
O 2.357277487178034 0.902927584840442 2.169176618580256 0.77122592753802
H 2.8348439527205747 1.603105500150102 2.8697549559447073 -0.38079891428149815
H 3.098092932137848 0.3802600559472483 1.803865968735907 -0.3454894772724779
O 2.175517364248036 1.0193185427121958 5.331541497797326 0.695577099530432
H 1.3729184414222921 0.9370627351368698 5.866869229440414 -0.34214460863470075
H 1.8886082134090478 1.5682055380292508 4.612843210608674 -0.3566979017222207
O 1.936795066984317 6.714038684909202 3.527288589875208 0.7606769688518049
H 1.7700207689038698 7.654662288616756 3.12912728554625 -0.38317204519642234
H 2.07487120304066 6.897729772506173 4.507820406563898 -0.34093158635702614
O 4.60176365936015 5.711417956759557 2.6108162683491143 0.719628111696758
H 5.153020272184024 6.49367749862804 2.6413086419435303 -0.3441225172820931
H 3.7680376392535444 6.11497112495677 3.0051514143602986 -0.3569152316496874
O 1.349987895517158 3.9152084698725846 1.9488824904923612 0.6980312128269746
H 1.7684419263486375 4.7545432537541235 2.0783697729693875 -0.36545193686585553
H 2.1332745889615072 3.3602918965100548 1.667972037113131 -0.33826946570884386
O 7.579365867624769 2.0532778875340427 3.3486436902166825 0.7027272528196649
H 7.614487946412031 2.819908019186674 3.8523731711216582 -0.3340100235364838
H 0.0797748988967063 2.4357048590127848 2.5982422075380964 -0.35949540912758904
O 4.686761874760335 3.659678553791984 5.55033201701823 0.6501078671003946
H 5.555810417261138 3.8992122564656526 5.875011027429494 -0.35510469206228124
H 4.228572246749045 3.434363759481633 6.495695397900655 -0.33244529466904393
24

O 4.121865951178563 2.3033300941957306 3.23686698928559 0.6801271166504508
H 4.150242970509434 2.695105341895128 4.170165778682453 -0.38850725969229205
H 4.327325980514958 3.1369820141364015 2.6726212824048585 -0.35730982855187765
O 2.3565075740690276 0.9035331372713007 2.168426735552571 0.774469591862291
H 2.831984281866393 1.6081989240575085 2.873642579671404 -0.37878876665069516
H 3.1032560163969807 0.3856962609430318 1.8029669419989185 -0.34425536829224557
O 2.175750190764776 1.0203530532896596 5.331858076029057 0.6966495766969989
H 1.374893329636057 0.9303364019431334 5.868062846993446 -0.3428682732217948
H 1.8933842826432823 1.5662362504065617 4.603776376868302 -0.356885237334425
O 1.9367934319939832 6.714501105025738 3.525224547629575 0.7568354845668281
H 1.7791496530002093 7.635998557674256 3.1361914240691777 -0.38523779886611176
H 2.072195488113959 6.893818872764144 4.508767066229305 -0.34082810063243707
O 4.599301719807432 5.710161457011511 2.611972764858175 0.7185175067444616
H 5.161333703281147 6.497931293522445 2.635574368452578 -0.34297824740190685
H 3.7648817096616938 6.113451116889366 3.0023767334174396 -0.3571150406062613
O 1.350738372029792 3.9145011263740614 1.9509772773425067 0.6980140681607478
H 1.7737396161933126 4.7530212463613655 2.083803250627336 -0.36447057002241146
H 2.1329072269320952 3.362241570364604 1.6734864554809652 -0.3386827672306906
O 7.579779513740117 2.0546977172307015 3.3480997831062833 0.7022485410895514
H 7.614998273872861 2.8225545465343482 3.8577419892179274 -0.3330161953526518
H 0.07809492291912677 2.4312351104412038 2.605318287213803 -0.36054139032079713
O 4.68667209088489 3.658450675969161 5.5491989197195775 0.648407846984409
H 5.564771565094563 3.8985329150809545 5.873727025835017 -0.3540193521045085
H 4.22014287888237 3.431608153671764 6.507444282249057 -0.32976553647463624
24

O 4.12289766757329 2.3044951871822925 3.236312792893672 0.6784265061412857
H 4.143020208099207 2.690963197282837 4.1611090728772595 -0.38859850376692795
H 4.324147403484184 3.140630659499969 2.676904427936893 -0.35740001693212164
O 2.3557858638487694 0.9042065561480601 2.167734526522771 0.7767038442795482
H 2.828407737375474 1.6119632736594214 2.8761249100787785 -0.37691681423301227
H 3.108143762879612 0.3913188969403973 1.8021684707191432 -0.3431472806929935
O 2.1759631102435657 1.0213804979899905 5.33220005175988 0.6977645786141553
H 1.3770923556157044 0.9235074586298818 5.86927551991354 -0.34362165890993024
H 1.8981787371917256 1.5644275562783019 4.594282707727626 -0.3570445065293304
O 1.9368040552657106 6.714999589805179 3.5232237375324638 0.7532768325323833
H 1.7884271845628337 7.6167057245908305 3.1433052896780334 -0.3870448207092323
H 2.06938214621932 6.8897142238539795 4.5086406932205705 -0.34091315200816297
O 4.596788355811677 5.70895549208571 2.6131569328693764 0.7173342342593254
H 5.169902795448353 6.501948071240203 2.629717668059261 -0.3417855113771382
H 3.762046048364357 6.111335829760293 2.9992995995387384 -0.3573708082273461
O 1.3515458193660077 3.913728512390786 1.9530454760888267 0.6980863864561335
H 1.7789966317518187 4.752289882468873 2.0895130458945874 -0.3634199174082522
H 2.1316242213465353 3.364393887298856 1.6792493178789873 -0.33926622319794
O 7.580216471656131 2.0560840409820003 3.3474959255180203 0.7015024296755101
H 7.615242059276415 2.8262667210421526 3.8643428934273834 -0.33178380468938684
H 0.07640731695768391 2.42629376041115 2.612133259938347 -0.36155025900193705
O 4.68651219039146 3.6571882666256896 5.548241363230365 0.6469542680864706
H 5.573944374249686 3.897932323462708 5.872111121164081 -0.35275656545003864
H 4.212552926864918 3.4293056637014367 6.516767725702039 -0.3274292369110411
24

O 4.123960292602497 2.3057887643794137 3.235754554989393 0.6776395773297132
H 4.13590228607668 2.6864449538371344 4.151695941513569 -0.38860787080893355
H 4.320731049705708 3.1430181950325395 2.681861506006675 -0.35754189311212614
O 2.3551159462722437 0.9049485637974766 2.1671010038818963 0.7778646055394778
H 2.824097322099088 1.6143632066668285 2.8771637671973114 -0.3752368581969887
H 3.1127178975151004 0.3971495729209532 1.801486637965365 -0.3422103350005504
O 2.176156704559485 1.0224051274050343 5.332559635117679 0.698917185741051
H 1.3794894917003184 0.9165990585491393 5.870491747891009 -0.34439441515974956
H 1.903006578347215 1.562686241418095 4.584501753567429 -0.3571830064456214
O 1.9368324222650117 6.715504397743644 3.5213022354769246 0.7500708419465607
H 1.797758294498788 7.597262975784133 3.1502632753690545 -0.388522057431688
H 2.0664290327868575 6.8854109915064186 4.50739639908037 -0.341171921004792
O 4.594238442164206 5.7078128191079465 2.6143666459732144 0.7161458029717003
H 5.178514613580266 6.505482045955119 2.6237471770807153 -0.34059610575197263
H 3.759512766985519 6.10866731171448 2.995944465037468 -0.35768210081124563
O 1.352408544592246 3.9129006264256323 1.9550901923791746 0.6982261617223418
H 1.7841631169059875 4.752270348936235 2.0954866010987616 -0.3623230451176733
H 2.129504948402716 3.366673427081263 1.6852218904054108 -0.3399909907130052
O 7.5806674927983435 2.057442688716888 3.346855596208048 0.7005289208273018
H 7.615216957204244 2.8308307929812777 3.872020808726421 -0.33036330417775983
H 0.07485788057264077 2.4209975048074486 2.6184691784059813 -0.36249261119524834
O 4.686291253701167 3.6558935074920034 5.547469766494552 0.6457981890644231
H 5.583095587800495 3.8973446739612556 5.870109709716243 -0.3513685632634108
H 4.205891384109147 3.427488182005118 6.523553143157773 -0.32550620695177934
24

O 4.125052353921534 2.307203579325458 3.2351801453045015 0.6777674629151258
H 4.128900538128725 2.6816377464028527 4.142165250867864 -0.3885225878612828
H 4.317096087583103 3.144176648378206 2.6874514451773193 -0.35772100838301024
O 2.354500597713921 0.905759250442875 2.166526476846657 0.7779512649718012
H 2.8190419420732575 1.6153774780572936 2.8767365306573387 -0.3738035771123762
H 3.116945285052229 0.403204560469561 1.8009349902563165 -0.3414858024822254
O 2.1763317679499843 1.0234314270930696 5.332928458664433 0.7001077623780352
H 1.3820550355676882 0.9096331388493821 5.871698266958069 -0.3451795105899982
H 1.9078830082264686 1.5609170903568321 4.57457943315861 -0.35731174419360234
O 1.9368842980588425 6.715979706318507 3.5194768986482736 0.7472744553172039
H 1.8070399894088325 7.578242014690984 3.1568217700727947 -0.389627180024152
H 2.0633374310062935 6.880908598312638 4.505014507233791 -0.3415909784752349
O 4.591666679375706 5.70674410684067 2.6155991453148073 0.7150290409012983
H 5.186971028945109 6.508314631484889 2.6176764372481895 -0.33947204162750133
H 3.7572526699431097 6.105494024760656 2.992340923831917 -0.3580463380474762
O 1.3533240445396761 3.9120295727064467 1.9571152304522892 0.6984218708783017
H 1.7891799403019757 4.752863053579759 2.1017069568568107 -0.36121248722845467
H 2.126651151404538 3.368992334820939 1.69135879359987 -0.34082598653130913
O 7.581122827277847 2.05878110804871 3.3462044762520895 0.6993770607188481
H 7.614921319653539 2.836000944149125 3.880591443205075 -0.3288142465239763
H 0.07359981711157963 2.4154695355855065 2.624102364994768 -0.3633417291445544
O 4.6860187552636505 3.6545688320250296 5.546891638798945 0.6450320136867913
H 5.592004258418457 3.8967085915692214 5.867675085404548 -0.3499164723979312
H 4.2002280522880495 3.426178030613488 6.52772673909673 -0.32408924114430404
24

O 4.126172259233185 2.308730198922812 3.2345770179604965 0.6788141864737023
H 4.122021923341152 2.6766357827548983 4.132775912485257 -0.38833959185874134
H 4.3132678298433165 3.144163978211706 2.693616994099962 -0.35793879977444754
O 2.353941744648509 0.9066381127410252 2.1660105218293286 0.7769937703795353
H 2.813236938749335 1.6149996393783919 2.8748367102695704 -0.3726631878398661
H 3.120798560523241 0.40949469374420816 1.8005235692250285 -0.3410083453502407
O 2.1764893615968224 1.0244638920553646 5.333297931986653 0.7013385352193731
H 1.3847565094230563 0.9026302149438659 5.87288370109293 -0.34597402591314597
H 1.912821845410591 1.5590266495921468 4.564663412764818 -0.3574413309505834
O 1.9369655022079042 6.716384070489428 3.517765054398882 0.7449707064514985
H 1.8161649853604844 7.560298832324514 3.1627026257399486 -0.39035547118795266
H 2.060112019863144 6.876210809096034 4.501502351474615 -0.3421692536273503
O 4.589087340420828 5.705757759189112 2.6168511263396064 0.7140438499228994
H 5.195092056860835 6.510257806840956 2.6115230904017075 -0.3384645655331344
H 3.755225653761857 6.101870245783971 2.988523192348074 -0.35845565133325175
O 1.3542888730791254 3.91112917127473 1.9591250146479442 0.6986669416758826
H 1.7939814443785826 4.753953015794808 2.1081534153755714 -0.3601259336637571
H 2.1231862537689006 3.371250992549355 1.697608578695038 -0.3417366812757926
O 7.581572605141514 2.060107655069448 3.3455691171285165 0.6981033923288009
H 7.614355098870165 2.841516095566869 3.8898521275305598 -0.32720060518278005
H 0.07278686405772085 2.4098340673303986 2.628813676936928 -0.36407712539725834
O 4.685704132816733 3.6532168790223447 5.546512066977139 0.6447591761538458
H 5.600467187701194 3.8959684283466522 5.864767089115345 -0.3484630471022949
H 4.195616268471149 3.42538953489127 6.529247213652084 -0.3232769426148898
24

O 4.1273183021546 2.3103570134613634 3.2339325197206743 0.6807680967449592
H 4.115268681310988 2.671538687373447 4.123802803460398 -0.38806902767718776
H 4.309277681032283 3.143065699127799 2.700284321875392 -0.35819947866067126
O 2.35344033625173 0.9075838636372875 2.165552048718927 0.7751329331411243
H 2.806684954971632 1.6132393130175007 2.871475033426984 -0.37185926544850834
H 3.124256381137222 0.41602566315202716 1.8002570374688607 -0.34080412669643134
O 2.1766308339565357 1.0255068449912559 5.33365954900216 0.7026045071746356
H 1.3875596654606297 0.8956092393670002 5.874038186413125 -0.3467718032305611
H 1.9178345999868966 1.556926006143551 4.5549002047390665 -0.3575800102658738
O 1.9370815337308844 6.7166719518183005 3.5161837364778834 0.7431065257145875
H 1.8250288626587245 7.544151062708646 3.1676014113364435 -0.39070978281030855
H 2.0567608823846566 6.871325875710371 4.496896495719214 -0.3428611581688077
O 4.586514162359714 5.70485997265929 2.6181188375056226 0.7132383313461588
H 5.202716679929334 6.5111539193034185 2.6053079852980354 -0.33760879931439003
H 3.7533813739429256 6.09785531818636 2.984529473568461 -0.35890484644174125
O 1.3552985781977762 3.910214493455858 1.9611244754859078 0.6989544092289628
H 1.7984984566256965 4.75541553357881 2.1148023353489114 -0.35910076601148344
H 2.1192533089301873 3.3733395560893715 1.703914742056757 -0.3426851689721142
O 7.582007325487964 2.061431153428832 3.3449756021589745 0.696772245660684
H 7.613520509252547 2.847113381836908 3.899590998641329 -0.3255924804750404
H 0.07256497304959915 2.404210123150737 2.6324006317828768 -0.36468340848018077
O 4.685356486548791 3.651840362888672 5.546333931768996 0.6448902643762198
H 5.6083015188603715 3.895074777576411 5.861353697035399 -0.34706671330715355
H 4.192094817900663 3.425130348656763 6.528101043075028 -0.32297047742696317
24

O 4.128488649537487 2.312070348164722 3.233234513994563 0.6835642942018401
H 4.108638009579313 2.666447220442616 4.115527134808706 -0.38770931652051066
H 4.305163013882013 3.1409973200347263 2.707362400374385 -0.3584971069254915
O 2.352996324659828 0.9085944639303367 2.165149120202326 0.7724662804457811
H 2.799397243354571 1.6101241512246312 2.8666812034759444 -0.3714217341670438
H 3.1273045481756987 0.42279705561047826 1.8001368662167863 -0.34087851645085365
O 2.176757822113438 1.0265642759004319 5.334005181488159 0.7038949830504373
H 1.3904294996143565 0.8885876061303067 5.875152618971553 -0.3475640201895389
H 1.9229289139904167 1.554534013397391 4.545428646842424 -0.35773489154793403
O 1.9372370636697283 6.716796376373262 3.5147484029470504 0.7418357551911918
H 1.8335370793679315 7.530534037900964 3.1712064706517236 -0.3907720945215529
H 2.0532955362769423 6.8662666850612055 4.491265273406891 -0.3437166598403296
O 4.583960192595824 5.704054760097595 2.6193981807005304 0.7126535666531204
H 5.209704199144423 6.510876219909574 2.599054322082773 -0.3369374443664688
H 3.7516601848528226 6.093512758514517 2.980401234089136 -0.3593888792154374
O 1.3563477154196801 3.9093013609882368 1.9631189072840314 0.6992778280641783
H 1.8026613487990557 4.75712173555346 2.121628022297674 -0.3581654163577047
H 2.1150116783126998 3.3751402623087174 1.7102171227881102 -0.34364023649065534
O 7.582418356087214 2.062760467202613 3.344448214443524 0.6954551958498205
H 7.6124225308526565 2.8525410946582004 3.909596400232094 -0.324062025733837
H 0.07306384819822981 2.398705324335882 2.6346891959133982 -0.36515230935212795
O 4.684984439104129 3.6504420344394006 5.546358068376212 0.6455945163393391
H 5.615345745180835 3.893984581368063 5.857410902168471 -0.3457858044949672
H 4.18968915301709 3.425401619107363 6.524300762026203 -0.32331596362122084
24

O 4.129681329105183 2.313854651785104 3.2324720707298518 0.6871035485601356
H 4.102122018224034 2.6614588998925917 4.108225488189984 -0.387262840394206
H 4.300966873308308 3.1381057868059874 2.714742891315883 -0.35882399269424126
O 2.3526085884470858 0.9096670515139177 2.164798766146966 0.769159252452406
H 2.7913953289418645 1.6057023943230957 2.8605061830508145 -0.37137417826576913
H 3.129936222422948 0.4298025890213935 1.800160267074147 -0.34123748369253837
O 2.176872230914146 1.0276397119353613 5.334327333763022 0.7052073681876689
H 1.3933312988757323 0.8815811217942904 5.876218332901414 -0.34834681718153615
H 1.9281080994239073 1.5517791921838802 4.536377250627548 -0.3579169087381965
O 1.9374353354118696 6.716713223060442 3.513471006446285 0.741167853218399
H 1.8416144774724044 7.5201308542492304 3.173228039233549 -0.39059742227699634
H 2.0497309569540905 6.861050950403582 4.484711308558641 -0.3447155343717866
O 4.58143768256522 5.703344045122466 2.6206848132228138 0.7123390211048108
H 5.2159347417567385 6.509328282590336 2.5927868099516433 -0.33648512941314535
H 3.749994297777359 6.088909304096265 2.976182422530129 -0.359906984897548
O 1.3574299593742292 3.9084058467609513 1.9651138069597034 0.6996319554015287
H 1.8064027921639492 4.7589433669435515 2.128603545327071 -0.3573563631452821
H 2.1106324487092465 3.3765304879513147 1.7164536559996941 -0.3445631574243111
O 7.582798513870954 2.064104283461725 3.3440081267466413 0.6942227869611743
H 7.611069155724787 2.8575685523063252 3.91966465891268 -0.32268286698412807
H 0.07438754023286692 2.3934095340437502 2.6355467907997205 -0.3654764435005625
O 4.684596054547929 3.649024655247924 5.546583300401831 0.6468649597567395
H 5.621461041558893 3.892661308921241 5.852922892733181 -0.3446777543542625
H 4.188411261361908 3.42619868110471 6.517883729648152 -0.3242728683083531
24

O 4.130894190084279 2.3156928047964414 3.231636358533728 0.6912714934597621
H 4.095708396045775 2.656662296924504 4.102155299444424 -0.3867354595873582
H 4.296737847918884 3.134568609738183 2.722300832403159 -0.35917969441158304
O 2.352274811316497 0.9107977325559098 2.1644968306843326 0.765372254186035
H 2.7827131256457704 1.6000461217518265 2.853025147330859 -0.37172022087306666
H 3.132151886712195 0.437031700725904 1.8003197754129836 -0.3418796868266645
O 2.176976193615407 1.0287361235694783 5.334619354035494 0.7065406063747977
H 1.3962316468831828 0.874604027992345 5.877226754149301 -0.3491198065624864
H 1.9333707788168248 1.5486011832256792 4.527861321755324 -0.35813579581276633
O 1.9376776164710428 6.716386234456635 3.512357726090118 0.7411227416063038
H 1.8492141324796094 7.513493178291078 3.173431225033717 -0.39024657684125774
H 2.046085541151888 6.855701328930459 4.477373904513258 -0.34584624584539536
O 4.578957997781402 5.702727823416214 2.6219742538758886 0.7123335091626659
H 5.221309000262704 6.506442427397281 2.58653089798963 -0.3362807357715958
H 3.7483092365202024 6.084113865018111 2.971918585100784 -0.3604554607331396
O 1.3585382881434742 3.907543764037569 1.9671146949717653 0.7000199299353695
H 1.809660231991391 4.760757213278262 2.1357016368205715 -0.3567143722048467
H 2.1062929750850548 3.3773863551192176 1.7225623556592555 -0.3454164293020737
O 7.583142615633536 2.0654710750273844 3.343672331708565 0.6931365307209831
H 7.609471349554759 2.8619920092330133 3.929605429279589 -0.3215193622250926
H 0.07660578454070671 2.388389561177698 2.634893886587878 -0.36565061962136913
O 4.684198858489144 3.6475910074467195 5.547006341550893 0.6487277419609478
H 5.626531823498426 3.8910749529500057 5.847881837379448 -0.34379353941425816
H 4.188258705037555 3.4275105998373396 6.5089140655824576 -0.3258308013739176
24

O 4.132124820477505 2.317566382053131 3.23072163095441 0.6959431600375576
H 4.0893820227829325 2.6521320328025957 4.097540473162543 -0.3861381532906434
H 4.292529389661924 3.1305970220153703 2.7298942572045495 -0.3595668921761114
O 2.35199135263376 0.9119813417003871 2.1642377781013185 0.761228368675148
H 2.773399246782582 1.59325489023839 2.844340885591125 -0.3724386285522906
H 3.1339599224030437 0.44446806830129226 1.8006034910115456 -0.34278734450101733
O 2.1770720205842253 1.0298558611685933 5.334875601999813 0.7078878765510295
H 1.3990993847510875 0.8676691487380569 5.878168724572126 -0.34988070924010717
H 1.9387107934729764 1.5449516539933088 4.519980778103823 -0.3583976955909637
O 1.9379629748255076 6.715790857413091 3.511407144109063 0.7417274880246487
H 1.8563211231183516 7.5109802227193745 3.1716622000176704 -0.3897723417117456
H 2.04238106124246 6.850244913375204 4.469431738806304 -0.34710120805308564
O 4.576531452926712 5.702204303021476 2.6232620052397864 0.7126533063568095
H 5.225748430989508 6.502178806989558 2.5803120334686267 -0.3363370112748555
H 3.7465260280145776 6.079196173514226 2.967655699991868 -0.3610267494664622
O 1.3596653091314503 3.9067301072081433 1.9691269047603537 0.7004413443285762
H 1.8123780328749723 4.7624489191177934 2.1428955492233865 -0.3562683068525444
H 2.102169559713572 3.377587666980761 1.728483791848119 -0.3461701885899673
O 7.583447890016836 2.066869036683184 3.343452856283163 0.6922431835483538
H 7.607642881248243 2.865639585504712 3.939246080680877 -0.320618969324203
H 0.07974764884420327 2.3836859458688067 2.6327120920512193 -0.3656737187431567
O 4.683799926530227 3.6461438934207075 5.547621523630151 0.6511860294932312
H 5.630465882269272 3.8892019311315544 5.842287537471483 -0.34317043832526206
H 4.189212556392319 3.429319450508173 6.497486178808043 -0.3279624013229573
24

O 4.1333704838079806 2.3194560761844283 3.22972598567036 0.7009691474784254
H 4.083126766174424 2.6479242316141334 4.094557765082565 -0.38548287173683704
H 4.288398926687524 3.1264334785862316 2.7373663238764734 -0.3599814767371212
O 2.351753052459941 0.9132110807757667 2.164014359531715 0.7568143909975751
H 2.7635205613712333 1.58546152788489 2.83458910536204 -0.3734851179121147
H 3.1353765684692183 0.4520905004593393 1.8009950211364196 -0.34392934307808865
O 2.1771621423506646 1.0310006155597835 5.3350915759959285 0.7092374485083994
H 1.401906467657994 0.8607880183827765 5.879034113950047 -0.35062356382192517
H 1.9441172919663252 1.5407947247693392 4.512818513364509 -0.3587069484845399
O 1.9382881908816216 6.714918455294837 3.5106083912584527 0.7429916934461429
H 1.862954367494118 7.5126921500736845 3.1678774315409037 -0.3892013103388693
H 2.0386422984495507 6.844714425978786 4.461102949127425 -0.3484679075171291
O 4.574167109994445 5.701770044744636 2.624543684086477 0.71330430826319
H 5.229195460699127 6.4965244622920775 2.5741549558502967 -0.33665660507500006
H 3.744564014731195 6.074225253506614 2.963438849207614 -0.36161483425217056
O 1.3608036822993146 3.905978496326757 1.971155362642353 0.7008876886899489
H 1.8145091669389914 4.7639160390866016 2.1501598186262356 -0.35603352257711596
H 2.0984289954738577 3.377023611523973 1.7341638113775477 -0.346799331970964
O 7.583714191813582 2.0683060359056618 3.3433563948456415 0.6915810487192726
H 7.605599996131955 2.8683714230023254 3.9484342082978006 -0.32001912787609066
H 0.08379842233787972 2.379312276872685 2.62904753033465 -0.3655478102606362
O 4.6834060660071595 3.6446861954360474 5.548420470377851 0.654204444206602
H 5.63319427515101 3.8870249364627325 5.836147038872145 -0.342833674903962
H 4.191234437017973 3.431599252372167 6.483729834578679 -0.3306067237670085
24

O 4.134628062994934 2.3213422787884572 3.228652008773093 0.7061789231759763
H 4.0769252529560545 2.644072167117497 4.093322895828669 -0.3847816083733354
H 4.284406311917175 3.12234680233099 2.7445490784703694 -0.3604111814401465
O 2.351553080831272 0.9144782126739515 2.163817311292637 0.7521884408834123
H 2.7531649543569325 1.5768368146073 2.823942995536884 -0.37479647127283555
H 3.1364259359738336 0.4598732764456377 1.8014735768831334 -0.34526954863957504
O 2.1772490521579737 1.032171399387463 5.33526400589835 0.7105803485199735
H 1.4046286039972393 0.8539710931579855 5.879811536756106 -0.3513425399244273
H 1.949574958738349 1.5361069804384824 4.506439306792011 -0.3590690454875459
O 1.9386480827209132 6.713777990123797 3.509940518019386 0.7448912875446194
H 1.8691621192854369 7.518443842381837 3.1621565777477176 -0.3885350733381443
H 2.034896373883763 6.839147116845781 4.452642159562027 -0.349913620404264
O 4.571872539012424 5.701420092757421 2.625815156365662 0.714296082621027
H 5.231614078785685 6.489493044574382 2.5680829807939403 -0.33724384347127867
H 3.742344127508412 6.069267746233641 2.9593107706153776 -0.362216646737481
O 1.3619465941501103 3.9053006498097993 1.9732043737193876 0.7013491629109436
H 1.8160165204254022 4.765070388696358 2.157470939234233 -0.35601980044120474
H 2.0952197121004104 3.375598807853999 1.7395562586586246 -0.3472822646080137
O 7.5839439863096905 2.0697895483381763 3.343384384757564 0.6911847233802595
H 7.603361000194035 2.87007940864797 3.9570383039216432 -0.3197493441977194
H 0.08870259054755168 2.3752571396607607 2.6240089885259956 -0.3652807150166184
O 4.683024053844889 3.643220964279556 5.549391686429237 0.6577193292699051
H 5.634671500303602 3.8845328608963765 5.829474345255918 -0.34280022108683605
H 4.194262567649238 3.4343145424217645 6.4678168639091105 -0.333676373866591
24

O 4.135894018379871 2.3232056924107907 3.22750708959611 0.7113906872900826
H 4.070765944234109 2.6405837622346326 4.093880536561321 -0.3840359559077322
H 4.2806119248818355 3.1186249227866956 2.7512685097729195 -0.3608439096404843
O 2.351382770067582 0.9157717138150265 2.163634979558574 0.7473821818088613
H 2.742444641467673 1.5675952139969667 2.8126185990224157 -0.3762933191371983
H 3.137139922012661 0.4677865526710595 1.8020141959915157 -0.3467722264976386
O 2.1773352590224673 1.0333685315808903 5.335390940431838 0.7119122908858129
H 1.4072456937825188 0.8472280360444028 5.880487706825536 -0.3520348460916001
H 1.9550642713239559 1.5308774430102534 4.5008886635254495 -0.35948906189439056
O 1.9390362647786903 6.712393446916327 3.5093738395833167 0.7473630244414777
H 1.8750107929264639 7.527806077490685 3.154687404163534 -0.3877485837342609
H 2.0311717491740513 6.833583907747766 4.444334904189522 -0.3513856790945237
O 4.569653539221733 5.701148082308923 2.62707267502828 0.7156362502742439
H 5.232990611024577 6.481124641950515 2.562117276274655 -0.3381014801475686
H 3.7397924257357156 6.064386260680612 2.9553104089723083 -0.36282966076135703
O 1.3630882087487042 3.904705922586131 1.9752774345298016 0.7018198623414318
H 1.816873767220683 4.765839754951047 2.1648079531886224 -0.35623634269039695
H 2.092663718411088 3.3732389451903364 1.7446253342256202 -0.347600813483227
O 7.5841421100846915 2.071326433545541 3.3435333805155962 0.6910649120495549
H 7.600945854891354 2.870686651846449 3.9649486716705336 -0.3198253233126175
H 0.09436329659805733 2.3714882706157057 2.6177610753414498 -0.3648718569535948
O 4.682660914434127 3.6417515267498146 5.55052005974116 0.6616387133362527
H 5.634876011208968 3.88172081249205 5.8222902124404525 -0.34307640414385954
H 4.19820684746581 3.4374186250545504 6.4499693055308365 -0.33706245893726994
24

O 4.13716441006625 2.325028108843724 3.226303201763491 0.7164464403609783
H 4.064642929384096 2.6374415349237634 4.096200011538032 -0.3832565326735239
H 4.277074032245826 3.115562586608168 2.7573524092800263 -0.36127101991052835
O 2.351231481490671 0.917077953382061 2.1634529847308164 0.7423926719554459
H 2.7314988741431407 1.5579998191777793 2.800879491632606 -0.3778828958757131
H 3.137558069890449 0.4757970567287515 1.8025881312586574 -0.34839802043700185
O 2.1774232503083994 1.034591632475032 5.3354718149882085 0.7132024714700136
H 1.4097422721229502 0.8405677697075867 5.881047527433904 -0.3526981441960926
H 1.960561767785597 1.5251073524223526 4.496191878181893 -0.35994264057740033
O 1.9394459529000505 6.710799638629154 3.5088722852192906 0.7503400672977527
H 1.8805733941354803 7.540173056329245 3.1457383377200836 -0.38681386953145014
H 2.0274969746630207 6.828068273490062 4.436487810613143 -0.3528271635877894
O 4.567513829057265 5.700946303980208 2.6283130146002347 0.717290538150148
H 5.233334853611952 6.471485990947877 2.556276087790609 -0.33920561841004004
H 3.736843642887594 6.0596378421989625 2.9514715572041976 -0.36343793728294815
O 1.3642241056189195 3.9042008885207875 1.9773770671828603 0.7022918082834444
H 1.81706587133921 4.766169096162298 2.1721529730360674 -0.3566827996244919
H 2.0908491487006278 3.369896213304371 1.7493476684945541 -0.3477429353926147
O 7.584315331902886 2.0729226350920404 3.3437957192561902 0.69122585315471
H 7.598375772390987 2.8701463663341333 3.972077804932504 -0.3202462896100551
H 0.1006519867226889 2.3679583383056313 2.610513206394058 -0.36433261840280506
O 4.682324337733911 3.640281655790869 5.551786086811793 0.6658385491797507
H 5.633811013943557 3.8785902016578695 5.814622031844829 -0.343651942670094
H 4.202941333027866 3.4408508627134546 6.430471918011021 -0.3406379716696697
24

O 4.138434960764111 2.326793124434535 3.2250562595888494 0.7212063213965598
H 4.058557621472294 2.6346050288176506 4.100177513814232 -0.38245588711134293
H 4.273846216671276 3.113447831630271 2.7626386036414727 -0.36168123418105547
O 2.3510866399193358 0.9183807390830562 2.163253795051103 0.7372133497067541
H 2.7204952853213165 1.548365476079765 2.789039683570485 -0.3794711295396299
H 3.1377270763314424 0.48386802834333764 1.8031632027149695 -0.3501029539071283
O 2.1775154678991586 1.035839628104579 5.335507499082129 0.7144957045961284
H 1.4121076273540045 0.8339987158164948 5.8814739512675915 -0.35332663128299946
H 1.9660401339695923 1.5188099692264196 4.492353461171893 -0.36048217499809976
O 1.9398706212254417 6.7090381245099024 3.508396062359309 0.7537443964118609
H 1.885919246689301 7.554824631704957 3.1356340157454414 -0.3857156332459202
H 2.0238990403344443 6.822644398593295 4.429414063283146 -0.35418207141182856
O 4.565454756384044 5.700805776994658 2.629533600392363 0.7192912481694465
H 5.232681489486919 6.460670990615838 2.550573899779664 -0.3405621084390211
H 3.7334445785108232 6.05507264692837 2.947821669292436 -0.36406333082482345
O 1.365351627614995 3.9037890182408987 1.9795046986226685 0.702751364982279
H 1.8165892922015938 4.7660212701676885 2.1794916126348007 -0.35734411214805417
H 2.0898245476152266 3.3655537126641555 1.7537137590728515 -0.3477040085320433
O 7.584471815719478 2.0745828825545582 3.3441603427721667 0.6916659873461757
H 7.5956728419075095 2.868440494595514 3.978360448925439 -0.3210004696010279
H 0.10741718438983265 2.3646109546310212 2.6025065510923646 -0.3636815412267428
O 4.68202311041695 3.6388157290532814 5.553165084160932 0.6701658219773636
H 5.631505780257125 3.8751489572009348 5.806503789050782 -0.3445017410086745
H 4.208296153751072 3.444533916631409 6.409684654798019 -0.34425916712819293
24

O 4.139701201893516 2.3284869576790017 3.2237849921964217 0.7255490980590542
H 4.052519691976955 2.632015283771208 4.105644332604495 -0.3816447651876913
H 4.270974504592324 3.1125449499002062 2.766984852525234 -0.36206119339838283
O 2.3509334337295966 0.9196602590358389 2.163017262682788 0.7318116303605036
H 2.7096298633149476 1.5390599979679125 2.777464666120683 -0.3809744187555053
H 3.137700453048617 0.49196033689461527 1.8037044413493328 -0.35184768565617486
O 2.177614285298674 1.0371107644042195 5.335500325167598 0.7157486409380007
H 1.4143356774354894 0.8275289044635075 5.8817481400808065 -0.3539176974582018
H 1.971468825190277 1.5120096209479246 4.489356486967712 -0.36106591482996964
O 1.9403045495489266 6.707152454132761 3.5079047976669187 0.7575293407646821
H 1.8911118792357111 7.571018374935009 3.124711394504137 -0.3844492424966036
H 2.02040180445496 6.817355207543079 4.423417029425202 -0.3554001522732956
O 4.563474966441381 5.700716272183685 2.63073263620878 0.7216043388095006
H 5.231091754868584 6.448801370174918 2.545020518825941 -0.3421502227915266
H 3.7295572746941574 6.050732769286673 2.944380863275527 -0.3646899908171296
O 1.3664700635506815 3.9034704963686915 1.981660602220368 0.7031862468972832
H 1.8154520093644744 4.765377449874575 2.1868133514001 -0.3581973502758842
H 2.089595940779715 3.36022802684802 1.7577284893969274 -0.3474865613050385
O 7.584620605158193 2.0763104388050007 3.3446135754703135 0.6923842101453923
H 7.592859673525325 2.8655783600599034 3.983753597314499 -0.3220731628773521
H 0.11449295885347067 2.361386116011956 2.594001754851997 -0.3629427443624266
O 4.68176753807468 3.6373588808275876 5.5546263887535385 0.6744832759245276
H 5.6280174890784425 3.8714118546981573 5.797976206567355 -0.34559331405998517
H 4.214049000922974 3.4483710371257494 6.38805513300964 -0.347802365353707
24

O 4.140958695251574 2.3300993478077143 3.2225094543805426 0.7293838581608778
H 4.04654714882709 2.629600669581694 4.112379932658196 -0.3808361948496105
H 4.268494448973743 3.1130749112278675 2.7702797520309193 -0.3623981925663885
O 2.3507555148803725 0.9208945043675238 2.1627204227961356 0.7262379672476569
H 2.699120983160767 1.530495507293079 2.766562526955527 -0.3823337154017882
H 3.137537924661659 0.5000332690557623 1.8041747249752509 -0.3536056764462563
O 2.1777220091229426 1.0384026350896935 5.335454096675718 0.7169562176671662
H 1.4164247409404522 0.8211660780224883 5.881849677596891 -0.3544713959822967
H 1.976814195821685 1.5047413155404126 4.487162352808519 -0.36168550642111097
O 1.9407431615673223 6.705184244817639 3.5073605413815865 0.7615824747481506
H 1.8962000374548356 7.5880390985444945 3.113301777268948 -0.3830342822478521
H 2.017024450972727 6.81224014213212 4.418771467940112 -0.3564193726915844
O 4.561570104634748 5.70066626642593 2.6319092070507786 0.7241425920006492
H 5.228655638111836 6.43602779070329 2.5396202085121367 -0.3438736754591435
H 3.7251616237431007 6.046651456904366 2.9411612411147683 -0.3653244779680438
O 1.367580640888202 3.903242194680565 1.9838439060986295 0.7035934372561752
H 1.8136733776752183 4.764237258558747 2.1941118455822166 -0.3592257348713367
H 2.0901270955326914 3.353969617778593 1.761410649424001 -0.3470937383117588
O 7.584771070245553 2.07810684539738 3.345139944149915 0.693374017117645
H 7.589959038369635 2.861595499612548 3.9882365359972662 -0.32344291294562155
H 0.12170801161744874 2.3582252967929365 2.585265845312133 -0.3621438732926392
O 4.681569891702957 3.6359171524875165 5.5561325730469076 0.6785794366820734
H 5.623433318585932 3.867400891177667 5.789086858650157 -0.346890717323601
H 4.219916059522603 3.4522434892081764 6.366130785345684 -0.3510705341013589
24

O 4.142203267533268 2.3316243250723154 3.221249477467929 0.7326494125603853
H 4.040665631317768 2.6272830643560177 4.12012749316436 -0.3800421617462244
H 4.266428900402736 3.1151974915145506 2.7724521647404194 -0.36267826031259953
O 2.350535475501053 0.9220597042140265 2.1623388642962063 0.7205617681810179
H 2.689199694913028 1.5231118046723615 2.756767629066937 -0.38351271835490375
H 3.1373047241481653 0.508045018029013 1.804535447670014 -0.3553534224832302
O 2.177840883413951 1.0397122149923843 5.335374050694106 0.7181218991520868
H 1.4183770745678665 0.8149177177331766 5.881756938526986 -0.3549894336282544
H 1.9820397931909575 1.497050032625589 4.485710620229792 -0.3623376699441826
O 1.941183148821495 6.703171124945963 3.50673012445614 0.7658000828165381
H 1.901220070334633 7.605242557226524 3.101708168349011 -0.3815151167989702
H 2.0137800630038374 6.807332705357539 4.415702627635553 -0.3571887129278918
O 4.559732627436358 5.7006429510011465 2.6330633589586947 0.7269174859331111
H 5.225493511346948 6.4225305222641325 2.5343703005159286 -0.34573824601914693
H 3.720257031067837 6.042852798896541 2.9381666397192525 -0.36597102020424177
O 1.368686335053251 3.903097804251319 1.9860526624880064 0.7039724298939498
H 1.8112837420954349 4.762618607552052 2.201385207274855 -0.36040538625430574
H 2.0913429496641003 3.3468609675923866 1.7647915249863548 -0.34653591979045384
O 7.5849324262545945 2.0799717236151842 3.3457228767876845 0.694621079179286
H 7.586993517146639 2.856552785868932 3.991811049977821 -0.32507540395115075
H 0.12889292409727765 2.355075290448754 2.5765609057310033 -0.36131974457063143
O 4.681444676877988 3.6344975582700623 5.557639047106986 0.6823595576183596
H 5.617872576592254 3.8631456563264654 5.779890183529721 -0.3483537005815974
H 4.225545439805638 3.45600889017373 6.344565690926034 -0.3539867977669948
24

O 4.143431241561935 2.3330607950494033 3.2200233600008104 0.7353233434558692
H 4.034907232351429 2.624983212080675 4.128608610779865 -0.37928560244381215
H 4.264786764879597 3.1189974999931773 2.7734778289566955 -0.3628920105932931
O 2.3502557498551413 0.9231317488487056 2.1618481525330364 0.7148841220992344
H 2.6800933681671877 1.5173518019832666 2.748516305756892 -0.384499031606125
H 3.1370707702280995 0.5159536104633393 1.8047473481801521 -0.357067099806068
O 2.177973105664629 1.0410359048406321 5.335266855494957 0.7192414135227332
H 1.4201982135975815 0.8087910255511592 5.881447608129479 -0.35547380846204824
H 1.9871066675666036 1.4889899115404692 4.484919070888314 -0.36301008349188546
O 1.9416224706465237 6.701145542766564 3.5059869932243446 0.7700858328779816
H 1.9061968854755784 7.622076457726476 3.090194737895281 -0.3799594200813008
H 2.0106747200269983 6.802658436142573 4.4143677547794615 -0.35767555637811754
O 4.557951710925308 5.700632257084768 2.6341961482223852 0.729877688311648
H 5.221756758055838 6.408518450074156 2.529260403203931 -0.34769340455669373
H 3.71486284711257 6.039351966763699 2.9353928682357524 -0.3666304503224157
O 1.369791522606007 3.9030281202489445 1.988283971455075 0.7043254811954043
H 1.8083238400222197 4.760557194287333 2.2086361971688246 -0.36170350152348385
H 2.0931357254047245 3.3390126128408797 1.7679127027626402 -0.3458331971296641
O 7.585113388334106 2.0819026604194577 3.346345194229772 0.6961087451297661
H 7.583985073514373 2.8505357787859595 3.994501784797758 -0.3269290719912926
H 0.13588767930345713 2.351890806328479 2.568135806346455 -0.36051171981797114
O 4.681408257267898 3.633107879848691 5.559094881812261 0.6857338916620153
H 5.611488826585973 3.8586836803466364 5.770447401777486 -0.3499415257248323
H 4.230521263207263 3.459504302251549 6.32410735753124 -0.3564750343256551
24

O 4.1446394892024765 2.334412675028879 3.2188467191006667 0.737398770630288
H 4.029308790932847 2.6226257101396815 4.137538611518313 -0.37859080956554436
H 4.263562940300619 3.124477273286767 2.7733821529808256 -0.3630346550560387
O 2.349899966277304 0.924088440626385 2.1612261372668717 0.7093535245856133
H 2.672007976044384 1.5136247519751793 2.742209971167931 -0.385299351065827
H 3.1369090811865523 0.5237177310194143 1.8047712621646226 -0.35872772932982466
O 2.1781208417678566 1.0423695996086961 5.3351405190513015 0.7203016917273506
H 1.421896217061264 0.8027928180337329 5.880899262252582 -0.3559274427430382
H 1.9919737889704026 1.4806231233316107 4.484684453274832 -0.3636803092187064
O 1.9420602462669823 6.699134567077196 3.5051122825471355 0.7743343757486649
H 1.911146058962883 7.638085771118691 3.0789829843274226 -0.37844239346264963
H 2.0077072737729966 6.79823357073597 4.414842476575029 -0.3578594108046087
O 4.55621320226218 5.700618822340881 2.635309671656376 0.7329521455349928
H 5.217629119054535 6.394228981674518 2.524271299107167 -0.34967054562091693
H 3.7090178273229064 6.0361558434935 2.93282831615258 -0.3673045783181651
O 1.3709015481557116 3.9030214299002575 1.9905341350927233 0.7046599567635492
H 1.8048440845197211 4.758105747416729 2.215872355690196 -0.3630840909311964
H 2.0953725208035796 3.3305578527583015 1.7708234871456432 -0.34501269098824805
O 7.585321882869686 2.0838951341072907 3.3469895182235936 0.6978191572932635
H 7.5809549565505385 2.8436543653389412 3.996356830256267 -0.32896050899740104
H 0.14254482820220082 2.348635790576155 2.5602193528867243 -0.35976268248595134
O 4.681477866215535 3.6317562518632798 5.560444491408631 0.6886519862476115
H 5.604473452961229 3.854061112668374 5.760826640824987 -0.35162180836332957
H 4.234375883964486 3.4625522394720436 6.305569885043495 -0.35849260157992013
24

O 4.145826088807993 2.3356889977260233 3.217731950585901 0.7388956085930418
H 4.023910077934451 2.620142968642314 4.146639942290851 -0.3779798561706711
H 4.262739426769546 3.1315566298996957 2.7722387059227627 -0.36310057071275903
O 2.3494543506651366 0.9249119453506935 2.160455408689879 0.704127729692656
H 2.6650972193108804 1.5122603031434552 2.7381720705988526 -0.38593644000098226
H 3.1368942834816025 0.53129789452511 1.8045692370181317 -0.3603196339406183
O 2.178286243407468 1.0437087877629503 5.3350042499015 0.7212928034289232
H 1.4234808269510457 0.7969294038582749 5.880090042964751 -0.3563545781056373
H 1.996598565643124 1.472018407609526 4.484884003465139 -0.3643276519185674
O 1.9424965768751266 6.697160434748655 3.5040950899071523 0.7784181181434122
H 1.9160762344414715 7.65290501112613 3.068254058782222 -0.37703423151073634
H 2.004869841852692 6.794064611481154 4.4171139410250015 -0.3577238084172937
O 4.554499893342243 5.700586193581267 2.636407032107103 0.7360828026817703
H 5.213324212114352 6.379923892348792 2.519374427694016 -0.3516131943857307
H 3.702778559172027 6.033264003969261 2.930454917307176 -0.3679977802968173
O 1.372022275158459 3.903063968762534 1.9927988247236472 0.7049914648671647
H 1.8009036361416169 4.755332780426796 2.2231059879260515 -0.3645140609372305
H 2.0979033691411577 3.3216468542840007 1.7735782513081526 -0.3441060820762243
O 7.585564909793209 2.0859425325217975 3.347638476167373 0.6997262883294622
H 7.5779230931855155 2.83604197833673 3.9974479000717142 -0.3311227449453277
H 0.1487325542851648 2.3452837636494532 2.5530167053669257 -0.3591111146257562
O 4.681669354670128 3.6304502670770047 5.561631582772851 0.6911299560810595
H 5.597057133956256 3.8493328688715036 5.751102334689867 -0.3533755912656339
H 4.236624050621346 3.464974703360486 6.289771890084013 -0.3600474325074918
24

O 4.146989265623786 2.3369026105761397 3.2166875953110727 0.7398288217509439
H 4.018752162918493 2.6174774842504673 4.155651487489835 -0.3774726734255275
H 4.262287421693995 3.140080244954113 2.7701636313322977 -0.3630863299151721
O 2.348909044847864 0.9255912018302245 2.159525637804389 0.6994117527052963
H 2.659463689459225 1.5134801821585253 2.736615981849972 -0.3864445754792012
H 3.1371004107066414 0.538657617915726 1.8041056195767164 -0.3618445659783711
O 2.178471460520703 1.0450486823848066 5.334868254205969 0.7222114214917961
H 1.4249625624329723 0.7912063915096905 5.8789993627461925 -0.35675844659247635
H 2.0009375164991976 1.4632491853159422 4.485377934078093 -0.3649393943258247
O 1.9429323445300355 6.695241172107302 3.5029321813707694 0.7821904784836635
H 1.9209910459167612 7.666247789223046 3.0581526721392036 -0.3757902866395664
H 2.0021489312365417 6.790148832452219 4.421081718781349 -0.35726000973554084
O 4.5527920032619145 5.7005171499936385 2.637492252832709 0.7392259891614159
H 5.209080670650504 6.36588284096813 2.5145318899260567 -0.35348053886535635
H 3.696216818227998 6.030670056428165 2.928249431591331 -0.368715096250505
O 1.373159617510342 3.9031404547185504 1.995073263965043 0.7053442843642477
H 1.796569189236094 4.752320870793117 2.230354026040956 -0.36596585937177795
H 2.1005698888808704 3.3124399872891304 1.776233681273017 -0.3431483128656132
O 7.585848506192731 2.088036248803718 3.3482747942612145 0.7017980810950051
H 7.574907693237874 2.827854504441469 3.9978702935757466 -0.33336396429547177
H 0.15433215534081607 2.341817284314908 2.546707879440365 -0.35859400895907645
O 4.681994637425015 3.6291960108504693 5.562603648191953 0.6932525807826535
H 5.589508867805198 3.8445621780446433 5.741353995829107 -0.3551904589498879
H 4.23680440342143 3.466608986659425 6.277466573842123 -0.36120888818569696
24

O 4.148127950804573 2.3380698303980623 3.2157187783831698 0.7402075646198729
H 4.013875852027643 2.614583291445149 4.164336031561699 -0.3770895507506524
H 4.2621700832504965 3.1498312028380164 2.7673068243601837 -0.36299530749131004
O 2.348258937224151 0.9261235422384483 2.158435061318992 0.6953225363345963
H 2.6551311606710417 1.517362101084674 2.737613983446641 -0.3868123145145277
H 3.1375981948073997 0.5457646672551936 1.8033482774944678 -0.3632604718732628
O 2.1786786430690848 1.0463843792440763 5.334743466237485 0.7230541324462372
H 1.4263517666213896 0.7856284346056692 5.8776086141984525 -0.3571404831019873
H 2.004947122062174 1.4543912468669267 4.486013040766228 -0.3655048087259355
O 1.9433690022403067 6.69339120793347 3.501627184303167 0.7855281324369658
H 1.925890579501135 7.677895237584561 3.048791924469135 -0.3747554011182537
H 1.999527011069893 6.786475624045865 4.426566220069794 -0.3564767726494369
O 4.551067938408186 5.70039423193967 2.6385701251863902 0.7423314314096356
H 5.205153569167578 6.352393416433786 2.509697351351997 -0.3552327599473344
H 3.6894160598033716 6.028363222419209 2.926184942642145 -0.36945741714800995
O 1.374319124955161 3.9032346493670245 1.9973524086572623 0.7057446037309656
H 1.791913428063429 4.749164362286605 2.2376377234116784 -0.3674074284649559
H 2.1032134175139396 3.303101241229242 1.7788462395755313 -0.3421821275013749
O 7.586177713314496 2.090165771507562 3.3488814128679523 0.7039961564676218
H 7.571924909108195 2.8192692259608236 3.9977428349042765 -0.3356254499537752
H 0.15924642951670673 2.3382275537930863 2.541446006906266 -0.3582476038648469
O 4.682457900435109 3.627996709283542 5.563318283791319 0.6950460578307185
H 5.58213363296266 3.839819795923463 5.731664662201173 -0.3570597206451327
H 4.234542032785557 3.4673298605294294 6.269243223947736 -0.36198299752579044
24

O 4.149241676304482 2.339209175535711 3.2148275497677967 0.7400522232042803
H 4.009320464001654 2.6114263451123265 4.172484628447474 -0.3768467834701018
H 4.262345563940257 3.160548790360577 2.763841119607737 -0.3628400710591061
O 2.347503956023481 0.9265152778150033 2.1571909880898468 0.6920003343137733
H 2.6520468295429467 1.5238314656258376 2.7410888683766883 -0.38703723651836797
H 3.1384519713199657 0.5525924626051998 1.8022699751805207 -0.3645542022319852
O 2.1789099380648334 1.0477110274179837 5.334641234901879 0.7238080218261564
H 1.4276576682481807 0.780198965209242 5.875901872871756 -0.35749927214744137
H 2.008584742663057 1.4455202696583653 4.48662702219009 -0.36600740736492143
O 1.943808369246145 6.6916219202870435 3.5001893891900915 0.7883312190456726
H 1.9307724626505705 7.687685107655204 3.0402579781456502 -0.3739653602697455
H 1.9969843176915738 6.783028345593649 4.433323505152873 -0.355401425838173
O 4.5493053253597076 5.7002004655211005 2.6396459828995056 0.7453397708403418
H 5.201801935107548 6.339737792226427 2.5048180464290675 -0.3568259289855519
H 3.682467491065329 6.0263299495695986 2.9242324007305003 -0.37022435778062746
O 1.3755056646679553 3.90332992164076 1.9996311165912426 0.7062195086393448
H 1.7870131916896101 4.7459663723849586 2.2449820917598653 -0.3688034432013123
H 2.105681896683762 3.2937922990857076 1.781470050663659 -0.3412573096103967
O 7.586556556067862 2.0923188217240134 3.3494415558537964 0.7062789676734151
H 7.568988443478416 2.8104831613250174 3.997207219620048 -0.33784721780859106
H 0.16339652374238828 2.3345137083371226 2.537356818423162 -0.3581031344256512
O 4.683051580025402 3.626851363888197 5.563749948873768 0.6966099975661315
H 5.575264322856304 3.835181867130685 5.72211846952901 -0.35896883067075
H 4.229620486717149 3.4670736316383897 6.265422078031343 -0.3624580617263984
24

O 4.15033027071227 2.34034012569197 3.2140135066763396 0.7393743827973611
H 4.0051231046927 2.6079837244692228 4.179917128343164 -0.37675273656303165
H 4.262769884302525 3.171947409430752 2.7599511036810185 -0.36263545667020214
O 2.3466487323643683 0.9267810438828878 2.155809017866746 0.6895277559733932
H 2.6500929621635265 1.532672387445898 2.7468250496372484 -0.3870899813071964
H 3.1397161774525317 0.5591215021712717 1.8008498128351687 -0.36569577033887735
O 2.1791674711475126 1.0490240356433649 5.334572909912278 0.7244597997347235
H 1.4288875371723515 0.774919924544616 5.873866534793593 -0.3578321519097887
H 2.011809756650447 1.4367088285018368 4.487054344333262 -0.366431827912968
O 1.9442524422576615 6.689942168762062 3.498632277364717 0.7905123811495405
H 1.935632622085039 7.695500450528308 3.0326153037366814 -0.3734368999980524
H 1.9945006325030028 6.77978664021899 4.441063988391059 -0.35407252520459154
O 4.547482153374482 5.6999201471620955 2.640725431545264 0.7481915413724971
H 5.199274891402118 6.328179103142872 2.499837562821398 -0.358217474574694
H 3.675466201906256 6.024555364251802 2.922362029155072 -0.3710162198811644
O 1.3767232390990287 3.903409775454313 2.0019042980354183 0.7067978859806037
H 1.7819473791799194 4.742835124175985 2.2524150606542186 -0.3701236222292146
H 2.1078348360166315 3.2846678982635025 1.7841553884142836 -0.3404236541158292
O 7.586988069994871 2.094481667531673 3.3499388999076265 0.7086036820538255
H 7.566109300075655 2.8017089885195094 3.996425081748931 -0.33997400910133646
H 0.1667218209426264 2.330681917650766 2.5345388784475964 -0.3581833203075375
O 4.6837551646665085 3.625754471078594 5.563892162806865 0.6980006750526795
H 5.569250761186022 3.830727160637161 5.712797949535844 -0.36090412604904953
H 4.2220118376670195 3.465845291275763 6.266022246280634 -0.36267832795108457
