1032

O 10.727 10.734 10.915 0.6840603922982975
H 10.309 11.595 10.915 -0.3614131797202622
H 11.708 10.415 10.915 -0.323672254892198
O 2.25 2.75 9.961 0.6916828951865366
H 2.6 2.58 10.881 -0.36210860223303887
H 1.37 2.3 9.841 -0.33189638699353496
O 5.69 12.751 11.651 0.6601315564371868
H 4.76 12.681 11.281 -0.3310015088624405
H 5.8 13.641 12.091 -0.3386340733737564
O 15.551 15.111 7.03 0.6764660865057186
H 14.981 14.951 7.84 -0.35403150630278823
H 14.961 15.211 6.23 -0.35622127552866245
O 17.431 6.18 8.56 0.6581452731026536
H 17.761 7.12 8.56 -0.3342616886456524
H 17.941 5.64 9.22 -0.3147145505728034
O 11.351 7.03 7.17 0.7124114385585427
H 11.921 7.81 6.92 -0.34864375637840705
H 10.751 7.29 7.93 -0.34432403684076063
O 17.551 6.07 2.31 0.6751765833896473
H 17.431 5.94 1.32 -0.3244513267846205
H 17.251 5.26 2.8 -0.3515822065531635
O 7.68 11.441 10.231 0.7007905516626378
H 6.9 11.611 10.831 -0.34520420563025633
H 8.02 12.311 9.871 -0.35598912136240557
O 8.5 7.98 18.231 0.677431696337286
H 8.46 8.74 18.881 -0.3403041923303053
H 8.72 8.34 17.321 -0.3348559142098153
O 6.85 10.121 6.65 0.7171606400822448
H 7.54 9.961 7.35 -0.3566299567640203
H 6.12 10.691 7.03 -0.3345777352640543
O 6.86 11.611 18.031 0.7346149775417015
H 7.46 12.401 18.171 -0.3482775655685246
H 6.0 11.921 17.621 -0.3564531656734792
O 3.35 14.351 10.611 0.7088808076202655
H 2.57 14.041 10.081 -0.33571866023892316
H 3.93 14.931 10.041 -0.3531355660309857
O 14.601 15.051 13.391 0.6583895322158471
H 14.841 15.991 13.651 -0.3553077514446392
H 14.441 14.511 14.211 -0.33648740271263167
O 4.38 3.92 14.991 0.7170169955854471
H 5.2 3.36 15.081 -0.35913803385607435
H 3.57 3.34 15.031 -0.3345806343012008
O 2.31 17.131 4.83 0.7120692267098763
H 2.65 17.901 5.37 -0.3539294187289177
H 2.75 17.131 3.93 -0.33741051546451195
O 11.271 13.411 16.901 0.6934099524863973
H 11.741 13.411 17.781 -0.3312347572000517
H 10.791 12.541 16.791 -0.36125682224477407
O 2.3 14.341 5.38 0.701856468636743
H 2.04 15.301 5.38 -0.34493663025602495
H 1.59 13.801 5.83 -0.35360913461003995
O 2.4 10.911 8.86 0.6905642441893374
H 2.54 10.071 9.38 -0.32380609013209527
H 1.85 11.551 9.41 -0.3467386777426228
O 6.2 17.861 14.391 0.7121660822411258
H 5.28 17.691 14.741 -0.34680361502285895
H 6.48 18.781 14.651 -0.3417031834604445
O 6.06 9.641 1.23 0.6843882202438056
H 6.13 10.481 0.69 -0.31431278026361187
H 6.52 9.771 2.11 -0.3688704729007558
O 15.941 1.14 14.801 0.670473183463363
H 15.761 1.81 14.081 -0.31487801729894005
H 15.911 1.6 15.691 -0.3466098033256235
O 18.421 17.671 3.59 0.6853264656368765
H 18.961 17.381 4.39 -0.35389457793305223
H 18.721 18.571 3.3 -0.3229108414856643
O 16.891 9.22 6.12 0.6997065435857159
H 17.841 8.93 6.2 -0.3199371613762316
H 16.811 9.87 5.37 -0.34410014480476514
O 16.411 11.081 4.32 0.6850221395374554
H 17.271 11.101 3.8 -0.34599191139148866
H 16.551 11.551 5.2 -0.3648882357824036
O 1.13 7.37 15.971 0.6830699834489025
H 2.01 7.24 16.421 -0.35931970425579207
H 1.0 8.34 15.751 -0.3377849450867356
O 6.13 13.651 7.26 0.7614845915077328
H 5.64 12.781 7.35 -0.3782443675218192
H 5.9 14.081 6.39 -0.36044730812506454
O 12.931 12.281 14.231 0.7491136052198826
H 13.301 11.551 13.651 -0.352643521529869
H 13.451 12.331 15.081 -0.3603793099436313
O 8.09 0.04 5.02 0.7482675781291395
H 8.49 0.95 4.93 -0.3358895827425318
H 7.09 0.12 5.08 -0.361919645992285
O 15.251 9.991 1.9 0.6029733897685672
H 14.621 9.231 2.03 -0.2890087689494629
H 15.731 10.171 2.76 -0.33071912114515367
O 11.871 17.921 16.161 0.693195769465718
H 12.111 18.521 15.401 -0.30759800447828733
H 11.941 16.971 15.861 -0.3651887326256129
O 3.17 2.51 18.011 0.6885848560516639
H 3.88 3.22 18.071 -0.3313982702509407
H 2.29 2.9 18.291 -0.34948040026147964
O 14.661 14.171 9.531 0.7335884035028366
H 14.071 14.231 10.331 -0.3467801138577974
H 14.511 13.291 9.071 -0.35810657997745077
O 16.671 17.141 5.72 0.7024916486563324
H 16.261 16.911 4.84 -0.33718263216496736
H 16.491 16.401 6.37 -0.3394019703175518
O 5.98 7.29 2.7 0.6594218370015286
H 6.22 7.98 2.02 -0.34929175403085344
H 5.2 7.62 3.24 -0.33533770696551646
O 12.811 3.45 9.441 0.7094077364427136
H 11.951 2.95 9.311 -0.340544412810429
H 13.431 2.91 10.001 -0.3505064988990111
O 15.761 16.621 3.07 0.70017528528391
H 16.651 17.081 3.1 -0.349645942001787
H 15.551 16.381 2.12 -0.3520722575579547
O 8.07 6.05 14.651 0.7495046688803049
H 7.6 6.02 15.541 -0.3562773756877564
H 7.56 5.5 13.991 -0.35671132964326346
O 13.941 4.69 16.741 0.66066175114796
H 13.741 5.12 17.621 -0.353056056870111
H 14.721 4.07 16.831 -0.3320277971566563
O 9.731 8.9 15.721 0.7412992251680235
H 10.191 8.06 15.431 -0.3694372839073944
H 9.171 9.24 14.971 -0.3453545797492449
O 9.911 4.1 12.421 0.6684141647651423
H 9.141 4.44 12.961 -0.3366857630673723
H 9.571 3.59 11.631 -0.33714003488684796
O 10.411 7.01 4.29 0.6970031170769575
H 10.671 6.97 5.25 -0.33815175017904364
H 9.561 6.5 4.15 -0.36382393285655235
O 0.76 8.11 7.89 0.6292181607835685
H 1.75 7.99 7.98 -0.3237140668200136
H 0.52 9.06 8.1 -0.30135781894507296
O 8.65 3.48 1.95 0.6804280124325706
H 9.24 4.11 1.46 -0.3445587546428279
H 8.84 2.54 1.66 -0.3347232446222589
O 17.191 5.85 18.311 0.6816794752138593
H 16.931 6.74 17.951 -0.3705051627522006
H 17.171 5.17 17.581 -0.329402709625075
O 13.621 11.441 5.45 0.6821840946535147
H 14.451 11.151 4.97 -0.33039905934169733
H 13.131 12.111 4.89 -0.3545807982446276
O 5.5 1.96 8.85 0.6975229082743208
H 5.45 1.91 9.85 -0.33619063788455195
H 5.52 2.92 8.56 -0.3293722789075083
O 10.081 14.561 4.77 0.6838935653532534
H 9.621 15.281 4.25 -0.33951763190209605
H 10.041 14.761 5.75 -0.32917754667932775
O 3.51 18.011 8.53 0.671518907584943
H 4.01 17.151 8.59 -0.34611051313514185
H 4.16 18.781 8.5 -0.3583373337860748
O 17.951 10.661 8.73 0.7084720007954584
H 17.331 10.511 7.97 -0.3335763961037981
H 17.431 10.771 9.58 -0.34803161310908404
O 12.271 15.501 15.061 0.6577716049589002
H 12.331 14.731 15.701 -0.34522691327205157
H 11.751 15.241 14.261 -0.3330563001139095
O 3.21 9.431 2.42 0.6392321295109973
H 4.03 9.821 2.0 -0.3288617033862775
H 2.94 8.611 1.93 -0.31178563924215585
O 14.581 7.35 7.28 0.6485668607732782
H 14.531 6.7 8.03 -0.34994141106479504
H 15.381 7.94 7.41 -0.32635899560261783
O 4.61 12.661 17.271 0.713840363833981
H 4.11 12.671 16.411 -0.38659338762398554
H 3.98 12.481 18.031 -0.3322063068805655
O 11.111 17.761 2.37 0.7012024790169828
H 10.511 17.141 2.87 -0.35302451098776455
H 11.421 17.321 1.52 -0.3351829415946056
O 2.02 2.85 14.981 0.6120486893590424
H 1.22 3.45 14.851 -0.3114048562141656
H 1.92 2.36 15.841 -0.33846483393211746
O 16.321 13.771 0.81 0.7068306617617353
H 16.001 14.711 0.71 -0.33023225211424145
H 15.561 13.141 0.69 -0.35511838563023335
O 4.64 17.431 3.23 0.667905888173169
H 4.97 17.821 4.09 -0.34415334558368726
H 5.4 17.361 2.58 -0.30465721294257864
O 14.001 1.07 4.26 0.6375065650985405
H 13.761 0.7 3.36 -0.34512128338929715
H 14.991 1.23 4.3 -0.2833895483951061
O 2.49 17.851 12.411 0.656990436913504
H 3.06 17.201 12.911 -0.33614538466027855
H 2.33 17.521 11.481 -0.32733136703594723
O 9.401 16.981 9.04 0.6775730826550541
H 10.201 16.411 9.25 -0.3312391626419391
H 8.911 16.581 8.27 -0.3650115714732889
O 3.82 7.0 4.8 0.6842522109209499
H 4.27 6.1 4.77 -0.3575575419148689
H 2.88 6.89 5.13 -0.3354033147834551
O 15.471 2.22 17.291 0.6861236497566479
H 15.421 2.59 18.211 -0.3732839388922
H 14.751 1.53 17.171 -0.32609777295752973
O 6.14 1.22 1.17 0.6466213923196635
H 7.12 1.0 1.24 -0.3361809852332398
H 5.83 1.05 0.24 -0.3285138728327499
O 7.81 2.64 17.491 0.6518068953450111
H 8.48 2.03 17.921 -0.32416671001306363
H 7.08 2.83 18.141 -0.3281382983540795
O 8.88 15.141 11.951 0.6965319701813648
H 8.65 14.891 11.011 -0.33953183049046587
H 9.49 14.451 12.341 -0.34993249223316203
O 13.511 5.9 14.331 0.7120579180762823
H 13.791 5.47 15.181 -0.34618958480703654
H 13.761 6.86 14.341 -0.3607181954931976
O 8.03 14.021 9.24 0.6956309577240631
H 8.93 14.161 8.82 -0.3394964310744071
H 7.32 14.041 8.53 -0.35103085626448793
O 9.22 5.03 8.99 0.72115397726468
H 8.97 4.94 8.03 -0.37869909480746866
H 9.7 4.21 9.3 -0.3335297339220822
O 5.39 0.64 5.12 0.7282266004380329
H 4.58 0.65 5.7 -0.34564279993123403
H 5.42 1.47 4.57 -0.3408515616385085
O 14.341 11.881 0.41 0.721400510953953
H 14.661 11.121 0.98 -0.3827697801746508
H 13.421 12.151 0.71 -0.3142210564613539
O 9.351 2.36 4.8 0.6446222805055442
H 8.871 2.77 4.02 -0.340229940696989
H 10.341 2.34 4.61 -0.34706881547938295
O 10.761 6.83 14.641 0.6563773357853053
H 9.961 6.22 14.671 -0.35911077030205496
H 11.571 6.3 14.401 -0.34371088219335466
O 12.271 15.701 7.93 0.6616381723743379
H 12.481 16.441 7.28 -0.3416268816920883
H 12.951 15.701 8.66 -0.32201370289225373
O 4.59 11.521 7.41 0.7355147285081154
H 3.88 11.251 8.06 -0.36135351879038113
H 4.33 11.241 6.48 -0.37039053192838967
O 12.711 17.971 5.91 0.7025637821399826
H 13.151 18.611 5.27 -0.3527240908432304
H 12.211 18.491 6.61 -0.34010311767062507
O 10.321 5.49 0.16 0.6513300165434126
H 9.911 6.31 21.599999999999998 -0.32962356952945293
H 10.961 5.75 0.89 -0.31974203849452965
O 5.61 2.22 11.471 0.6575396621961396
H 5.99 1.38 11.841 -0.33136742290764754
H 4.73 2.41 11.911 -0.3482310372474976
O 8.66 4.54 6.42 0.6701562978989477
H 8.34 5.26 5.8 -0.33221970308049154
H 8.9 3.73 5.89 -0.34570689971084423
O 10.171 0.39 7.53 0.6455280098253153
H 9.451 0.44 6.84 -0.351678484353807
H 9.931 21.529999999999998 8.22 -0.29948953181007587
O 14.291 11.731 8.67 0.6577068631735878
H 13.741 10.891 8.6 -0.3436256061972395
H 14.551 12.021 7.75 -0.34857705025607
O 14.661 5.9 9.921 0.6630317246393744
H 14.361 4.95 9.991 -0.3273783730761476
H 15.391 6.06 10.581 -0.33172570822914405
O 18.571 8.33 3.77 0.6750043411107249
H 18.991 7.69 4.41 -0.3552722235673409
H 18.191 7.82 2.99 -0.3275283476514421
O 4.88 13.851 1.74 0.6998083628923855
H 4.01 13.701 2.21 -0.365972706396251
H 4.71 14.111 0.79 -0.30272992914827823
O 16.641 12.801 6.57 0.7266827117232406
H 17.631 12.881 6.71 -0.34022504930096087
H 16.191 13.641 6.88 -0.3478893683218546
O 13.901 5.75 0.78 0.7459708295879768
H 13.361 5.54 1.59 -0.3632975531755278
H 14.811 5.34 0.87 -0.3600772280686836
O 5.27 2.56 3.28 0.7114844019980993
H 5.54 1.97 2.53 -0.3659478997453902
H 5.27 3.51 2.97 -0.3499833697415706
O 17.541 12.231 15.881 0.6799279148995163
H 18.451 11.841 15.751 -0.33479884775613444
H 17.621 13.191 16.121 -0.34893959567607524
O 10.641 13.471 13.401 0.7434877222898901
H 9.841 13.241 13.951 -0.35602347958390657
H 11.471 13.211 13.891 -0.35147737691537195
O 15.921 16.291 16.251 0.7268149275110378
H 16.191 16.631 15.351 -0.3646684569308063
H 16.711 15.911 16.711 -0.3288277568634539
O 16.381 10.991 10.791 0.668964707509641
H 16.431 11.801 11.381 -0.36835889413460343
H 15.521 11.011 10.281 -0.3421783390962556
O 9.15 0.89 14.021 0.6825942043873257
H 9.4 0.69 13.071 -0.3320001731562837
H 9.87 1.45 14.441 -0.31988362624936184
O 9.801 11.161 17.191 0.6877687079015988
H 8.811 11.221 17.291 -0.34510274050168044
H 10.031 10.361 16.631 -0.35600045511709755
O 7.05 10.501 3.68 0.730016776312528
H 6.91 10.571 4.67 -0.3447045646222717
H 7.89 9.991 3.5 -0.3721975530891033
O 4.1 8.13 12.511 0.7065291938194616
H 4.96 8.25 13.011 -0.3388848055506236
H 3.68 7.26 12.781 -0.34201768881701433
O 12.741 3.86 12.621 0.7175093746909482
H 12.951 4.6 13.261 -0.3628356035620469
H 11.851 4.03 12.191 -0.3621844283423673
O 0.64 15.641 13.311 0.6370192424765078
H 0.18 16.461 12.971 -0.29582208093219253
H 1.62 15.831 13.401 -0.3406626394074711
O 3.67 11.001 5.01 0.6481584987096589
H 3.6 11.831 4.45 -0.33332657426437595
H 3.71 10.201 4.41 -0.3491671022140622
O 5.66 5.37 8.65 0.6818895362928608
H 5.78 6.03 7.91 -0.35788188470431237
H 6.12 5.71 9.48 -0.32469363776706806
O 12.521 13.481 3.88 0.6834947257330146
H 13.021 14.251 4.28 -0.3518472235586162
H 11.571 13.501 4.2 -0.34393160313123994
O 12.721 14.451 11.421 0.6646230536271229
H 13.191 14.581 12.291 -0.34486375567481586
H 12.061 13.711 11.511 -0.3395586764181361
O 15.821 6.39 4.72 0.6583383067559216
H 15.511 7.0 5.45 -0.3456038970080766
H 16.321 6.91 4.03 -0.3109531150810293
O 3.54 15.101 13.291 0.7120169846470548
H 3.33 14.661 12.421 -0.35778543471476487
H 4.51 15.361 13.321 -0.350721097707584
O 4.02 7.51 15.981 0.663645531503704
H 4.7 8.06 15.511 -0.36170839515707864
H 4.42 6.63 16.251 -0.33937289400708126
O 15.871 7.79 16.701 0.7321043462625845
H 14.951 8.17 16.651 -0.33515654230114034
H 16.471 8.26 16.051 -0.36196281635211824
O 10.131 1.05 17.701 0.6432441804900044
H 10.191 1.9 17.181 -0.34512379190419373
H 10.451 0.29 17.131 -0.3064799434839761
O 5.04 0.5 17.401 0.6840337293046037
H 4.62 21.759999999999998 16.701 -0.32881682110241606
H 4.38 1.19 17.721 -0.34685368739047595
O 5.73 8.7 10.291 0.6597763040099265
H 6.17 9.59 10.201 -0.32914518876894805
H 5.1 8.7 11.061 -0.3458470468456013
O 13.601 8.62 10.451 0.6772296959001123
H 12.851 8.62 9.791 -0.34217658459890665
H 13.971 7.7 10.541 -0.3505860114950846
O 12.091 5.25 2.75 0.7171469513647333
H 12.221 4.41 3.29 -0.35943185771084607
H 11.801 5.99 3.35 -0.3403030775284477
O 3.07 2.13 12.311 0.6325048802224531
H 2.84 2.5 13.211 -0.34877997362024393
H 2.77 1.18 12.251 -0.3397728652130143
O 7.32 6.34 10.641 0.6832325747017318
H 7.91 6.08 9.881 -0.3568887493077908
H 7.04 7.3 10.531 -0.34641229772985904
O 17.281 9.351 18.541 0.6758665210339352
H 16.821 9.281 17.651 -0.32730363460777523
H 16.661 9.791 19.201 -0.34506972122249346
O 3.07 0.63 6.18 0.6106297171152093
H 2.96 1.57 6.51 -0.3535093286575417
H 3.02 0.0 6.95 -0.2806293444266025
O 16.221 3.67 3.74 0.6693659534519769
H 16.241 2.91 4.38 -0.3374721653585283
H 15.741 4.44 4.14 -0.3447895514102801
O 10.231 7.66 9.661 0.6915212848352379
H 10.381 7.87 10.621 -0.3534498311504133
H 9.931 6.71 9.571 -0.3447589402944836
O 9.801 15.731 17.001 0.7350458407301517
H 9.601 16.171 16.121 -0.36316894536369093
H 10.191 14.821 16.841 -0.3359448468213506
O 18.591 15.181 16.051 0.6916390400868604
H 18.731 15.451 15.101 -0.3282822209198416
H 19.421 15.401 16.581 -0.3388390381670032
O 3.5 8.98 18.041 0.7125674959051915
H 4.26 9.42 18.521 -0.3275063001550904
H 3.85 8.51 17.221 -0.3541660452347659
O 15.401 2.74 1.25 0.7025111772927035
H 14.791 1.99 1.48 -0.32941571863845776
H 15.621 3.26 2.08 -0.34691100424554977
O 13.031 8.38 0.42 0.6619732243940701
H 13.371 7.45 0.57 -0.35841045950850225
H 13.211 8.65 21.299999999999997 -0.3259721574474478
O 10.681 13.331 8.49 0.7027470994940987
H 10.751 12.491 7.94 -0.3558960737754897
H 11.301 14.021 8.13 -0.32812267089050906
O 3.19 8.1 9.491 0.6984435346755422
H 4.12 8.46 9.541 -0.34633607878555117
H 3.13 7.25 10.011 -0.3403049225107163
O 3.39 5.09 10.061 0.7535263885966934
H 2.87 4.26 9.891 -0.3491501773442942
H 4.16 5.14 9.421 -0.36081077545991425
O 11.381 3.8 16.781 0.712330914100324
H 10.931 4.43 17.421 -0.35900799647698034
H 12.311 4.11 16.611 -0.3371533774775245
O 11.601 2.07 14.771 0.7093314789214507
H 11.601 2.71 15.541 -0.3646490973427393
H 11.881 2.55 13.941 -0.325017838381648
O 0.88 18.011 9.27 0.6830720137984745
H 0.46 17.151 9.0 -0.31406050790589823
H 1.82 18.041 8.93 -0.3488996794870749
O 5.04 15.681 9.1 0.7025693776544717
H 5.7 16.421 9.19 -0.36506859543906334
H 5.48 14.891 8.68 -0.35360997563808305
O 10.021 7.96 12.381 0.6813845225637696
H 10.431 7.64 13.241 -0.34697432825689023
H 9.061 7.69 12.351 -0.31660087178247764
O 1.89 5.2 17.221 0.6715223490706261
H 2.48 4.8 16.521 -0.32925208174750187
H 1.31 5.91 16.811 -0.34523406252927513
O 13.691 9.501 16.601 0.6823036001061746
H 14.081 10.391 16.801 -0.34521061361805927
H 13.791 9.301 15.631 -0.34728939523256885
O 8.15 5.72 3.25 0.7311574942820149
H 8.22 4.83 2.79 -0.3578147891174214
H 7.21 6.06 3.17 -0.3496106455416088
O 16.571 6.04 12.061 0.6920010015494187
H 16.191 5.35 12.681 -0.33405077658038906
H 17.391 5.68 11.621 -0.36060270092459423
O 2.52 15.641 17.441 0.6927191270400357
H 2.22 16.211 18.201 -0.3258862467173653
H 2.45 14.671 17.701 -0.34536804079529315
O 6.71 4.64 12.691 0.7082144682765392
H 6.37 3.75 12.391 -0.3426820768414677
H 6.97 5.18 11.891 -0.351592748960981
O 9.3 16.781 14.651 0.6556989153122519
H 9.06 16.601 13.701 -0.34265891895223277
H 9.6 17.721 14.751 -0.3355529969863448
O 4.73 5.0 1.91 0.6477709457598353
H 5.34 5.8 1.95 -0.3321944862926315
H 3.78 5.31 1.98 -0.30242672165753703
O 1.59 11.371 14.661 0.5575309244941762
H 1.81 10.761 15.421 -0.3081652096199533
H 1.69 10.881 13.801 -0.28610916191695623
O 13.471 10.591 12.341 0.6712303087610536
H 13.711 9.961 11.601 -0.3572081640670257
H 12.571 10.991 12.161 -0.3305080206775579
O 13.021 8.55 3.09 0.6844727107416695
H 12.161 8.24 3.51 -0.33203632605421296
H 12.981 8.41 2.1 -0.33394844604130436
O 17.591 17.471 11.541 0.7149350004625319
H 18.201 17.771 10.811 -0.3513596686878693
H 17.211 16.581 11.321 -0.3623549717155946
O 12.521 17.311 11.281 0.6884563140592928
H 13.361 17.361 10.741 -0.33718077070584807
H 12.291 16.351 11.461 -0.3372444566745565
O 0.83 12.581 10.221 0.6405705915298716
H 0.78 12.571 11.221 -0.32979028675577615
H 0.0 12.171 9.841 -0.3287953501043377
O 6.88 16.621 17.161 0.6611242506774992
H 6.32 17.431 17.251 -0.3322405778922394
H 7.4 16.661 16.301 -0.3450858733451201
O 9.03 0.86 1.33 0.608784402092085
H 9.54 0.87 0.47 -0.31054758192482723
H 9.59 0.44 2.04 -0.3323637790090057
O 17.261 1.35 5.23 0.6769587611318553
H 17.991 1.18 4.56 -0.36234730381931024
H 16.951 0.48 5.61 -0.32115429701225395
O 13.881 15.731 4.77 0.7097422767069244
H 14.551 15.851 4.03 -0.35609502021610795
H 13.481 16.621 5.0 -0.35552838997376457
O 12.801 9.27 6.72 0.7366966801196462
H 13.401 8.46 6.74 -0.3437076166919628
H 13.201 9.96 6.12 -0.3623046640587386
O 8.3 12.731 14.221 0.6556376934655548
H 8.25 13.061 15.171 -0.3566437791634791
H 7.44 12.921 13.761 -0.35000315171956986
O 6.72 16.161 1.54 0.6787839657923387
H 6.81 16.261 0.55 -0.3228853130651149
H 6.32 15.271 1.75 -0.36271272897893303
O 16.501 17.201 13.941 0.709166062324031
H 17.031 17.301 13.101 -0.3552936559153175
H 16.231 18.101 14.281 -0.3507940900364436
O 18.411 1.75 9.631 0.673502027065819
H 18.801 0.9 9.271 -0.3416622261234148
H 17.431 1.77 9.441 -0.3602078318063875
O 2.63 3.26 7.2 0.6778208611097147
H 1.84 3.77 6.86 -0.34435622095930885
H 2.54 3.11 8.18 -0.3370552586690674
O 11.941 16.121 0.31 0.68794165131043
H 12.001 15.191 0.68 -0.36868591887578306
H 11.351 16.121 21.34 -0.32773256488354785
O 8.22 10.021 13.721 0.6774463717316808
H 8.62 10.011 12.801 -0.34699296062846763
H 8.32 10.941 14.121 -0.3530700509691236
O 9.16 9.1 2.91 0.7048628780163302
H 9.79 9.48 2.23 -0.35551176148011376
H 9.56 8.27 3.3 -0.3436033881985381
O 15.041 16.071 0.44 0.6335016228638608
H 14.121 16.441 0.51 -0.32766269265487014
H 15.421 16.271 21.369999999999997 -0.34329817885684655
O 3.72 12.881 14.901 0.7166617094850638
H 3.59 13.811 14.561 -0.3500264247796544
H 2.88 12.361 14.771 -0.3582971912790046
O 16.141 12.921 12.891 0.6854707903285657
H 16.741 12.951 13.691 -0.33404416046919094
H 15.391 13.561 13.021 -0.34446989004742656
O 10.391 10.981 6.96 0.6836469332602331
H 9.691 10.511 7.5 -0.3428263914550901
H 10.981 10.301 6.53 -0.33458135508466136
O 10.141 2.36 9.711 0.6885865251675707
H 10.061 2.0 8.781 -0.3475968807926608
H 10.121 1.6 10.361 -0.33031067720263174
O 5.9 14.871 4.91 0.6607185284934722
H 6.32 14.291 4.21 -0.3408597983466852
H 5.46 15.661 4.47 -0.3359128494689484
O 17.091 3.85 13.811 0.7067361228318418
H 17.821 4.54 13.851 -0.3411100703190937
H 17.371 3.1 13.221 -0.35999802915540835
O 2.55 13.481 2.9 0.7082233291183346
H 1.59 13.491 2.63 -0.35585835251611675
H 2.67 14.011 3.74 -0.3608630668584334
O 1.05 10.131 17.261 0.6643002378084208
H 0.28 9.801 17.801 -0.30140453906371933
H 1.9 9.831 17.681 -0.35174648477093096
O 6.72 2.03 14.891 0.6704291754495859
H 7.62 1.87 14.491 -0.3316688223122539
H 6.8 2.08 15.881 -0.3246200747036303
O 14.401 8.56 13.981 0.6999761992815934
H 13.831 9.08 13.351 -0.3469931036855568
H 15.361 8.68 13.741 -0.35049074885463616
O 11.831 13.351 1.19 0.7389459268620389
H 10.841 13.241 1.21 -0.3805244683257607
H 12.171 13.501 2.12 -0.3445890856824382
O 6.13 8.42 14.311 0.6892383909980637
H 6.69 9.23 14.141 -0.3604896880049493
H 6.72 7.62 14.341 -0.3383183913722787
O 14.931 17.671 9.591 0.6377367843829447
H 15.261 18.311 8.901 -0.3308029381920783
H 15.591 17.611 10.341 -0.3137313246357031
O 7.16 5.65 17.081 0.6470755267364581
H 7.35 6.3 17.821 -0.3463427403336915
H 7.76 4.85 17.171 -0.33111920635506786
O 14.501 12.201 16.331 0.6919942723401613
H 14.411 12.101 17.321 -0.3642366776631627
H 15.461 12.131 16.071 -0.3402182595443024
O 3.9 17.411 15.601 0.6613731740338551
H 2.99 17.821 15.581 -0.3514590031844659
H 3.83 16.471 15.921 -0.36629221278392676
O 16.741 8.83 12.541 0.697962881943317
H 16.471 7.94 12.171 -0.35194671625013874
H 16.751 9.51 11.811 -0.35831241150572823
O 12.251 3.25 4.49 0.6997858141838469
H 12.901 2.51 4.38 -0.3557389026028449
H 12.451 3.75 5.33 -0.3498307394482433
O 5.94 7.45 6.52 0.7002631390243197
H 6.44 8.3 6.33 -0.3374041479492852
H 5.06 7.47 6.04 -0.33588655563560565
O 17.771 3.42 16.421 0.7129495456953538
H 17.601 3.73 15.481 -0.3361735901047359
H 16.931 3.05 16.801 -0.3356996673743352
O 17.301 9.341 15.171 0.6960643207275847
H 17.681 10.251 15.321 -0.34562568573523966
H 17.221 9.171 14.181 -0.3554687303015368
O 8.59 13.741 0.16 0.6558989716347803
H 8.13 13.891 1.04 -0.3386682604104442
H 9.03 14.591 21.689999999999998 -0.307021220785781
O 6.61 17.901 9.531 0.6664694441920922
H 6.15 18.781 9.401 -0.3393034674826315
H 7.6 18.021 9.461 -0.3364926531109459
O 8.59 9.561 8.61 0.7212819605498968
H 9.13 8.871 9.09 -0.3512752374009822
H 8.27 10.251 9.27 -0.3560900823225084
O 10.831 9.841 0.87 0.6683973227530853
H 10.601 10.371 0.05 -0.32790429169439816
H 11.641 9.281 0.68 -0.3313465764222365
O 18.611 15.691 8.51 0.641534163475928
H 17.901 15.571 7.81 -0.33554644596101846
H 18.621 14.901 9.11 -0.34473663190517234
O 2.21 13.141 18.441 0.639946535501493
H 1.56 12.411 18.231 -0.33940476657890695
H 2.25 13.281 19.421 -0.3293956314312734
O 0.79 12.401 6.53 0.6374357197173213
H 0.78 11.931 7.41 -0.32789789715169926
H 1.61 12.121 6.02 -0.3285213246406138
O 6.72 13.911 16.241 0.7184872933654791
H 5.94 13.411 16.621 -0.35285913623817267
H 6.69 14.861 16.551 -0.3290950621192704
O 18.241 1.92 12.271 0.7036539776247412
H 18.201 1.02 12.711 -0.3223702176816021
H 18.271 1.81 11.281 -0.366591377322378
O 4.28 4.24 5.2 0.7108353162698808
H 4.58 3.52 4.58 -0.3476635084760159
H 3.89 3.84 6.03 -0.34166112015540684
O 17.051 14.871 11.041 0.678079602349305
H 16.121 14.621 10.771 -0.345150660930301
H 17.311 14.371 11.861 -0.34585097323570957
O 3.17 5.47 12.801 0.7044536203994625
H 3.55 4.88 13.521 -0.33189998007798704
H 3.57 5.21 11.921 -0.3589666362217182
O 8.12 15.861 6.87 0.6597616092929055
H 8.44 15.961 5.93 -0.3234346551545223
H 7.33 15.241 6.89 -0.3492859155673449
O 14.241 2.14 11.121 0.6662151685205426
H 14.761 1.49 11.671 -0.31909062699090407
H 13.751 2.77 11.731 -0.35812667477484317
O 10.011 0.34 11.541 0.622821167435383
H 9.381 21.45 11.231 -0.3611492067603219
H 10.941 21.81 11.541 -0.3217865348582095
O 7.7 13.301 3.01 0.6763464478181103
H 7.24 12.431 3.18 -0.3538022637639294
H 8.61 13.271 3.42 -0.3242595728753307
O 6.18 15.671 12.841 0.7145872175538042
H 6.13 16.491 13.411 -0.3548450195056362
H 7.07 15.641 12.391 -0.34317756001581334
O 13.521 0.52 1.68 0.658079809591392
H 13.871 0.11 0.84 -0.3510596910271132
H 12.621 0.14 1.88 -0.3189551034070407
O 13.001 4.53 6.91 0.6929917472177163
H 12.411 5.33 6.95 -0.3451931162313203
H 13.151 4.18 7.84 -0.3363982101332249
O 15.931 2.21 8.82 0.661148084692309
H 15.091 2.2 9.36 -0.3469974166549571
H 15.951 3.04 8.26 -0.33731591172360786
O 0.39 10.771 3.0 0.6174807723123088
H 1.38 10.661 2.91 -0.3243149983293635
H 21.819999999999997 9.911 3.32 -0.29329932180365226
O 8.75 16.461 3.37 0.7148358671920514
H 7.98 16.111 2.83 -0.35463422766575703
H 8.43 17.171 3.99 -0.3636994211299397
O 17.551 6.07 20.931 0.7032450811876227
H 17.431 5.94 19.941 -0.3728758074454115
H 17.251 5.26 21.421 -0.30922872100313936
O 6.06 9.641 19.851 0.693553730306502
H 6.13 10.481 19.311 -0.35497486868473593
H 6.52 9.771 20.731 -0.3377510921538692
O 18.421 17.671 0.381 0.6536143236454564
H 18.961 17.381 1.181 -0.3536078363988673
H 18.721 18.571 0.091 -0.3031712502967393
O 0.27 15.961 19.791 0.6426180028205195
H 0.08 15.001 20.001 -0.31955576404765107
H 21.77 16.541 20.541 -0.31896052789607554
O 16.411 11.081 1.111 0.6147925355302775
H 17.271 11.101 0.591 -0.30854139568895966
H 16.551 11.551 1.991 -0.3162343415693354
O 15.251 9.991 20.521 0.6462345751649545
H 14.621 9.231 20.651 -0.31354721723875445
H 15.731 10.171 21.381 -0.37890034051846566
O 5.98 7.29 21.321 0.6398127384324486
H 6.22 7.98 20.641 -0.34835929961481216
H 5.2 7.62 0.03100000000000236 -0.3182429370560754
O 8.65 3.48 20.571 0.6049927385794795
H 9.24 4.11 20.081 -0.3293993198885805
H 8.84 2.54 20.281 -0.2899313705471329
O 10.081 14.561 1.561 0.6665947834287671
H 9.621 15.281 1.041 -0.33641906091757456
H 10.041 14.761 2.541 -0.31668081374936996
O 3.21 9.431 21.041 0.6384380574076269
H 4.03 9.821 20.621 -0.3261860236617061
H 2.94 8.611 20.551 -0.3096535126331311
O 16.321 13.771 19.431 0.7077325120981293
H 16.001 14.711 19.331 -0.3430632354561246
H 15.561 13.141 19.311 -0.3447474599344569
O 4.64 17.431 0.021 0.6464185206079813
H 4.97 17.821 0.881 -0.3463097080757904
H 5.4 17.361 21.200999999999997 -0.3172448507349285
O 6.14 1.22 19.791 0.67605861876154
H 7.12 1.0 19.861 -0.31249134336155215
H 5.83 1.05 18.861 -0.33234428815750106
O 14.341 11.881 19.031 0.7161805339542715
H 14.661 11.121 19.601 -0.3809140021945905
H 13.421 12.151 19.331 -0.33696378832386353
O 2.97 0.35 20.331 0.6183998108333704
H 3.46 1.19 20.121 -0.3197135050486878
H 3.59 21.529999999999998 20.781 -0.32913678419280135
O 10.321 5.49 18.781 0.6567983952175114
H 9.911 6.31 18.391 -0.3496756485777963
H 10.961 5.75 19.511 -0.3275515427880592
O 18.571 8.33 0.561 0.6387472331667103
H 18.991 7.69 1.201 -0.3244915346255476
H 18.191 7.82 21.610999999999997 -0.3315365519774932
O 4.88 13.851 20.361 0.6978754221327614
H 4.01 13.701 20.831 -0.3588123386389631
H 4.71 14.111 19.411 -0.3138042293710941
O 13.901 5.75 19.401 0.6471831005716053
H 13.361 5.54 20.211 -0.34949816792729405
H 14.811 5.34 19.491 -0.3314188825119596
O 15.821 6.39 1.511 0.6247387994379272
H 15.511 7.0 2.241 -0.33485400584132896
H 16.321 6.91 0.821 -0.3082308368050599
O 15.401 2.74 19.871 0.6797672666386152
H 14.791 1.99 20.101 -0.35410663590824465
H 15.621 3.26 20.701 -0.34607321470621644
O 13.031 8.38 19.041 0.7022289436143616
H 13.371 7.45 19.191 -0.3356920876279954
H 13.211 8.65 18.091 -0.35839169731766507
O 8.15 5.72 0.041 0.7011779786651635
H 8.22 4.83 21.410999999999998 -0.3419936734833636
H 7.21 6.06 21.790999999999997 -0.32618979231981826
O 4.73 5.0 20.531 0.6430942621309059
H 5.34 5.8 20.571 -0.3282578438002407
H 3.78 5.31 20.601 -0.2888836757295038
O 17.261 1.35 2.021 0.6280696655728653
H 17.991 1.18 1.351 -0.31269907835521804
H 16.951 0.48 2.401 -0.30435615644259684
O 6.72 16.161 20.161 0.6932525681506636
H 6.81 16.261 19.171 -0.361428245109354
H 6.32 15.271 20.371 -0.346485937897935
O 11.941 16.121 18.931 0.697508567820238
H 12.001 15.191 19.301 -0.322042239430681
H 11.351 16.121 18.131 -0.3512599790635862
O 9.16 9.1 21.531 0.6569867994364591
H 9.79 9.48 20.851 -0.32827007461020774
H 9.56 8.27 0.09100000000000108 -0.3103385221132198
O 15.041 16.071 19.061 0.6658761336665933
H 14.121 16.441 19.131 -0.32743863482240654
H 15.421 16.271 18.161 -0.35005449651485654
O 2.55 13.481 21.521 0.6573800559505507
H 1.59 13.491 21.251 -0.35271177882275906
H 2.67 14.011 0.5310000000000024 -0.3416392796649187
O 0.75 3.45 18.951 0.6377511513633962
H 21.659999999999997 3.17 18.661 -0.3026206858108407
H 1.06 4.22 18.391 -0.3369573648199309
O 11.831 13.351 19.811 0.6605928817316649
H 10.841 13.241 19.831 -0.3387359246940186
H 12.171 13.501 20.741 -0.34756729526178143
O 8.59 13.741 18.781 0.6505573607817379
H 8.13 13.891 19.661 -0.3163673152801556
H 9.03 14.591 18.481 -0.339239453527415
O 10.831 9.841 19.491 0.7119785046353604
H 10.601 10.371 18.671 -0.33857453359061873
H 11.641 9.281 19.301 -0.34796743731900015
O 13.521 0.52 20.301 0.6535202626713028
H 13.871 0.11 19.461 -0.33292241152044655
H 12.621 0.14 20.501 -0.3133986229129023
O 0.39 10.771 21.621 0.6161952171013638
H 1.38 10.661 21.531 -0.3209494675417487
H 21.819999999999997 9.911 0.11100000000000065 -0.2954224175719391
O 8.75 16.461 0.161 0.6727956715722563
H 7.98 16.111 21.450999999999997 -0.3462466788008747
H 8.43 17.171 0.781 -0.34422903815553463
O 4.38 0.711 14.991 0.6901121309882905
H 5.2 0.151 15.081 -0.34432029972493705
H 3.57 0.131 15.031 -0.3168952073431651
O 15.941 19.761 14.801 0.6653488578579863
H 15.761 20.431 14.081 -0.31602036346511286
H 15.911 20.221 15.691 -0.35397219242496836
O 8.09 18.661 5.02 0.7117054492317259
H 8.49 19.571 4.93 -0.3449615859566424
H 7.09 18.741 5.08 -0.3642976029082481
O 12.811 0.241 9.441 0.6838271136696878
H 11.951 21.570999999999998 9.311 -0.31808691522090904
H 13.431 21.531 10.001 -0.3546231081409118
O 5.5 20.581 8.85 0.7135560234639691
H 5.45 20.531 9.85 -0.33680361578263585
H 5.52 21.541 8.56 -0.35112501556972664
O 2.02 21.471 14.981 0.6243455001143827
H 1.22 0.2410000000000032 14.851 -0.3251706052323281
H 1.92 20.981 15.841 -0.33696383781855344
O 14.001 19.691 4.26 0.6577670504093138
H 13.761 19.321 3.36 -0.34935572020354055
H 14.991 19.851 4.3 -0.3307649324475834
O 15.471 20.841 17.291 0.679844674193478
H 15.421 21.211 18.211 -0.3615272833161163
H 14.751 20.151 17.171 -0.3242250087257078
O 6.14 19.841 1.17 0.6357688648425768
H 7.12 19.621 1.24 -0.33099504236004573
H 5.83 19.671 0.24 -0.3155155695211681
O 7.81 21.261 17.491 0.646917640408951
H 8.48 20.651 17.921 -0.31596480155735984
H 7.08 21.451 18.141 -0.3244407555290165
O 5.39 19.261 5.12 0.7633498571493522
H 4.58 19.271 5.7 -0.3525586028205152
H 5.42 20.091 4.57 -0.38863638065797024
O 5.61 20.841 11.471 0.6639682441887365
H 5.99 20.001 11.841 -0.3179117768689267
H 4.73 21.031 11.911 -0.35593118600024
O 10.171 19.011 7.53 0.7020705776936138
H 9.451 19.061 6.84 -0.32692869458775964
H 9.931 18.321 8.22 -0.3373524555723022
O 5.27 21.181 3.28 0.6688498737318813
H 5.54 20.591 2.53 -0.3339156594671183
H 5.27 0.30100000000000193 2.97 -0.33273643372858785
O 9.15 19.511 14.021 0.6963012348164082
H 9.4 19.311 13.071 -0.3443578723545574
H 9.87 20.071 14.441 -0.3266360547680821
O 12.741 0.651 12.621 0.660338632054593
H 12.951 1.391 13.261 -0.34534328724233176
H 11.851 0.821 12.191 -0.3385082102016431
O 10.131 19.671 17.701 0.6587613776287897
H 10.191 20.521 17.181 -0.2958295416195229
H 10.451 18.911 17.131 -0.3629265157552174
O 5.04 19.121 17.401 0.6894199733227939
H 4.62 18.551 16.701 -0.3586827020236667
H 4.38 19.811 17.721 -0.32588550557990636
O 3.07 20.751 12.311 0.6741242616477416
H 2.84 21.121 13.211 -0.3301852443553106
H 2.77 19.801 12.251 -0.3549828492793293
O 3.07 19.251 6.18 0.6381592458962659
H 2.96 20.191 6.51 -0.34229971834341144
H 3.02 18.621 6.95 -0.3398299979496482
O 15.401 21.361 1.25 0.6550177180729575
H 14.791 20.611 1.48 -0.32801383628342506
H 15.621 0.05100000000000193 2.08 -0.33480142852214767
O 11.601 20.691 14.771 0.6326776054609056
H 11.601 21.331 15.541 -0.31000766665112245
H 11.881 21.171 13.941 -0.3311173530780085
O 9.03 19.481 1.33 0.6384827290531785
H 9.54 19.491 0.47 -0.2947089639496343
H 9.59 19.061 2.04 -0.3486208968657656
O 17.261 19.971 5.23 0.6991243446562763
H 17.991 19.801 4.56 -0.3383767913410597
H 16.951 19.101 5.61 -0.34895304949012484
O 18.411 20.371 9.631 0.7268845880584873
H 18.801 19.521 9.271 -0.3666191004133966
H 17.431 20.391 9.441 -0.35793128864707513
O 6.72 20.651 14.891 0.6807011678200681
H 7.62 20.491 14.491 -0.3475765631593891
H 6.8 20.701 15.881 -0.33417618133598115
O 12.251 0.041 4.49 0.7029594103831505
H 12.901 21.130999999999997 4.38 -0.31830555016221107
H 12.451 0.541 5.33 -0.3579314616758962
O 17.771 0.211 16.421 0.6939847383803555
H 17.601 0.521 15.481 -0.3246413117964899
H 16.931 21.671 16.801 -0.34284356252275816
O 18.241 20.541 12.271 0.7006101828135449
H 18.201 19.641 12.711 -0.30763345186598423
H 18.271 20.431 11.281 -0.353693405960273
O 14.241 20.761 11.121 0.6679799259230403
H 14.761 20.111 11.671 -0.33231702414274766
H 13.751 21.391 11.731 -0.3506312951582091
O 10.011 18.961 11.541 0.6670764943363334
H 9.381 18.241 11.231 -0.3410489735631794
H 10.941 18.601 11.541 -0.3526675873685129
O 13.521 19.141 1.68 0.6663432497832389
H 13.871 18.731 0.84 -0.32662871914538794
H 12.621 18.761 1.88 -0.3572132940159709
O 13.001 1.321 6.91 0.6531042398018654
H 12.411 2.121 6.95 -0.31709228522494337
H 13.151 0.971 7.84 -0.3312255628269396
O 15.931 20.831 8.82 0.6540717258683095
H 15.091 20.821 9.36 -0.3402437453366898
H 15.951 21.661 8.26 -0.33532157474139246
O 8.65 0.271 20.571 0.6017412144966592
H 9.24 0.901 20.081 -0.3098264631780918
H 8.84 21.160999999999998 20.281 -0.31589692673810554
O 6.14 19.841 19.791 0.6642014355482573
H 7.12 19.621 19.861 -0.2939735179127221
H 5.83 19.671 18.861 -0.3525816305014805
O 2.97 18.971 20.331 0.6585733218764256
H 3.46 19.811 20.121 -0.3052122461328325
H 3.59 18.321 20.781 -0.3410539245609846
O 15.401 21.361 19.871 0.6683291136170428
H 14.791 20.611 20.101 -0.34459579407263685
H 15.621 0.05100000000000193 20.701 -0.3613045978809153
O 17.261 19.971 2.021 0.6299232029233996
H 17.991 19.801 1.351 -0.30887324905075386
H 16.951 19.101 2.401 -0.3175705509194816
O 0.75 0.241 18.951 0.6031514280777381
H 21.659999999999997 21.790999999999997 18.661 -0.30168323722404533
H 1.06 1.011 18.391 -0.2988312332566213
O 13.521 19.141 20.301 0.6526963045395595
H 13.871 18.731 19.461 -0.328220178805405
H 12.621 18.761 20.501 -0.33494845430041453
O 20.921 6.28 1.13 0.6124283655065348
H 19.991 6.26 1.5 -0.31054724859797544
H 20.931 5.89 0.21 -0.31071651384546606
O 20.871 2.75 9.961 0.7417669667609843
H 21.221 2.58 10.881 -0.34656516874164334
H 19.991 2.3 9.841 -0.35002213585044595
O 18.811 3.68 6.47 0.6399924249204005
H 17.991 4.11 6.86 -0.31710989369813725
H 18.531 2.95 5.84 -0.34719023548822237
O 0.141 14.351 10.611 0.6683364157755518
H 21.191 14.041 10.081 -0.30045706821776585
H 0.721 14.931 10.041 -0.33768809114063825
O 20.931 17.131 4.83 0.6955431226606965
H 21.271 17.901 5.37 -0.3602828915983012
H 21.371 17.131 3.93 -0.3217643987322899
O 20.921 14.341 5.38 0.6681452268025669
H 20.661 15.301 5.38 -0.32886135859737664
H 20.211 13.801 5.83 -0.33331097235913265
O 21.021 10.911 8.86 0.688106377123785
H 21.161 10.071 9.38 -0.3236913614696353
H 20.471 11.551 9.41 -0.34697671633908167
O 19.841 6.43 5.63 0.6670063665410186
H 19.391 5.55 5.8 -0.33534471508951713
H 19.831 6.97 6.47 -0.34195268892661157
O 19.751 7.37 15.971 0.6540838646898219
H 20.631 7.24 16.421 -0.32956469961738966
H 19.621 8.34 15.751 -0.3582866464376919
O 20.591 9.761 12.641 0.6746376458996304
H 21.481 9.311 12.501 -0.3608365755016598
H 19.861 9.111 12.451 -0.3186568829962769
O 19.381 8.11 7.89 0.6847149579322505
H 20.371 7.99 7.98 -0.35740131578358003
H 19.141 9.06 8.1 -0.3370268388870914
O 19.921 18.211 15.711 0.6794566693875126
H 19.821 18.061 16.701 -0.368546235926714
H 19.061 18.571 15.351 -0.30829142044716873
O 20.641 2.85 14.981 0.6643743821366463
H 19.841 3.45 14.851 -0.34391425008113663
H 20.541 2.36 15.841 -0.3285378111744016
O 0.611 7.0 4.8 0.6940798245348887
H 1.061 6.1 4.77 -0.3341480397125165
H 21.500999999999998 6.89 5.13 -0.3322610335890174
O 19.401 5.56 13.861 0.7236168927530011
H 20.321 5.55 13.451 -0.35630837430715767
H 19.341 6.3 14.531 -0.34968216421656595
O 0.891 8.13 12.511 0.6550287465993243
H 1.751 8.25 13.011 -0.33738854904231197
H 0.471 7.26 12.781 -0.33093558608810647
O 19.261 15.641 13.311 0.6359727866052314
H 18.801 16.461 12.971 -0.3326796676524554
H 20.241 15.831 13.401 -0.34310947980018713
O 21.691 2.13 12.311 0.6368519276760853
H 21.461 2.5 13.211 -0.32770996828997345
H 21.391 1.18 12.251 -0.33674588805930206
O 18.991 13.101 12.821 0.7162644027861331
H 19.521 12.611 13.501 -0.34097699392969705
H 19.211 14.081 12.871 -0.3603712968244066
O 21.811 8.1 9.491 0.6209264943421164
H 0.9110000000000014 8.46 9.541 -0.3333957130473544
H 21.751 7.25 10.011 -0.2957601633113195
O 18.701 13.261 2.0 0.7067559301208259
H 17.771 13.471 1.69 -0.3499165973241778
H 18.801 12.271 2.13 -0.3378304057612559
O 19.501 18.011 9.27 0.7114521940883698
H 19.081 17.151 9.0 -0.3726505063985496
H 20.441 18.041 8.93 -0.3392559755351545
O 1.831 15.681 9.1 0.6411211749708796
H 2.491 16.421 9.19 -0.3375072174446676
H 2.271 14.891 8.68 -0.33024431808089283
O 19.021 5.44 11.141 0.6726132087130523
H 19.871 5.11 10.731 -0.33557164854096855
H 19.151 5.59 12.121 -0.33659011700771346
O 20.511 5.2 17.221 0.665348160390753
H 21.101 4.8 16.521 -0.3201354544558942
H 19.931 5.91 16.811 -0.3657286095551119
O 21.141 15.641 17.441 0.6579894045248027
H 20.841 16.211 18.201 -0.35572143425091174
H 21.071 14.671 17.701 -0.3082777879454208
O 1.521 5.0 1.91 0.6221229347825936
H 2.131 5.8 1.95 -0.2875510890322056
H 0.571 5.31 1.98 -0.32888060448605294
O 20.211 11.371 14.661 0.6846521293427443
H 20.431 10.761 15.421 -0.3343608073342662
H 20.311 10.881 13.801 -0.3636044565289648
O 19.451 12.581 10.221 0.69155575627369
H 19.401 12.571 11.221 -0.36133923900742815
H 18.621 12.171 9.841 -0.33216115378800226
O 19.921 17.941 18.511 0.756692452767397
H 19.511 17.201 19.041 -0.36618649164591166
H 20.561 18.451 19.091 -0.35477002258486856
O 21.251 3.26 7.2 0.7009081877867942
H 20.461 3.77 6.86 -0.34635957761570524
H 21.161 3.11 8.18 -0.3372464542748299
O 0.511 12.881 14.901 0.6586727522430582
H 0.381 13.811 14.561 -0.29571823230520655
H 21.500999999999998 12.361 14.771 -0.3243429628085428
O 21.171 13.481 2.9 0.7342949575882463
H 20.211 13.491 2.63 -0.3535489582607103
H 21.291 14.011 3.74 -0.3320376781482973
O 19.671 10.131 17.261 0.6720064775805401
H 18.901 9.801 17.801 -0.3611128706638439
H 20.521 9.831 17.681 -0.29752826795767806
O 19.371 3.45 0.33 0.6124121301231318
H 18.451 3.17 0.04 -0.30395871309831557
H 19.681 4.22 21.599999999999998 -0.3094340711930422
O 19.341 1.66 3.18 0.6447315555908784
H 19.171 2.49 2.64 -0.3347120748148844
H 20.241 1.29 2.96 -0.3196547350179091
O 0.691 17.411 15.601 0.6967470101953213
H 21.610999999999997 17.821 15.581 -0.3470443483183735
H 0.621 16.471 15.921 -0.35921960020726507
O 19.411 12.401 6.53 0.661410497779074
H 19.401 11.931 7.41 -0.3346258845545146
H 20.231 12.121 6.02 -0.35708526893657455
O 1.071 4.24 5.2 0.6752910639819119
H 1.371 3.52 4.58 -0.34166139175471155
H 0.681 3.84 6.03 -0.3442433683758934
O 21.791 5.47 12.801 0.6305695215622205
H 0.3410000000000011 4.88 13.521 -0.3224485142800616
H 0.36100000000000065 5.21 11.921 -0.3648701095972028
O 19.011 10.771 3.0 0.7002453146554917
H 20.001 10.661 2.91 -0.3483206506301869
H 18.611 9.911 3.32 -0.3485593776032071
O 20.921 6.28 19.751 0.6593835475216707
H 19.991 6.26 20.121 -0.31366635229119577
H 20.931 5.89 18.831 -0.33874935396135974
O 20.931 17.131 1.621 0.6273990672876586
H 21.271 17.901 2.161 -0.29613114587275324
H 21.371 17.131 0.721 -0.3353652388314581
O 18.891 15.961 19.791 0.686573860812647
H 18.701 15.001 20.001 -0.36786826679545137
H 18.561 16.541 20.541 -0.33117744091387824
O 1.431 17.431 0.021 0.6961271664342483
H 1.761 17.821 0.881 -0.36004751933333645
H 2.191 17.361 21.200999999999997 -0.3441252101414922
O 2.181 0.64 1.911 0.6518870829521113
H 1.371 0.65 2.491 -0.2831739566241708
H 2.211 1.47 1.361 -0.3466726718238776
O 2.061 2.56 0.071 0.6570736042795122
H 2.331 1.97 21.151 -0.31001693865120805
H 2.061 3.51 21.590999999999998 -0.3499105592844165
O 18.701 13.261 20.621 0.7204012840918885
H 17.771 13.471 20.311 -0.3609690418583765
H 18.801 12.271 20.751 -0.3555575385629439
O 1.521 5.0 20.531 0.6129907444278873
H 2.131 5.8 20.571 -0.28925018401036984
H 0.571 5.31 20.601 -0.3282714170381844
O 21.171 13.481 21.521 0.709957379377089
H 20.211 13.491 21.251 -0.3651829359691091
H 21.291 14.011 0.5310000000000024 -0.3220848269976351
O 19.371 3.45 18.951 0.6741040718409899
H 18.451 3.17 18.661 -0.31480416946036405
H 19.681 4.22 18.391 -0.3378516679172988
O 19.011 10.771 21.621 0.6860581525093341
H 20.001 10.661 21.531 -0.33378489406055023
H 18.611 9.911 0.11100000000000065 -0.35229887153639083
O 20.871 21.371 9.961 0.7363251428170292
H 21.221 21.201 10.881 -0.3505183141446543
H 19.991 20.921 9.841 -0.3375601578289237
O 18.811 0.471 6.47 0.6429040885216581
H 17.991 0.901 6.86 -0.3249889171357683
H 18.531 21.570999999999998 5.84 -0.33131421386503135
O 2.291 20.581 8.85 0.6294777669196616
H 2.241 20.531 9.85 -0.32144968912006777
H 2.311 21.541 8.56 -0.308725126380332
O 20.641 21.471 14.981 0.6529195047624308
H 19.841 0.2410000000000032 14.851 -0.32568956848243535
H 20.541 20.981 15.841 -0.33675475756094675
O 1.831 19.121 17.401 0.6729585557927606
H 1.411 18.551 16.701 -0.34471965006513006
H 1.171 19.811 17.721 -0.2991689529387941
O 21.691 20.751 12.311 0.6332466106772072
H 21.461 21.121 13.211 -0.33383526179802725
H 21.391 19.801 12.251 -0.3339288896156949
O 21.691 19.251 6.18 0.6585368209429072
H 21.581 20.191 6.51 -0.36023752403761666
H 21.641 18.621 6.95 -0.30812236834805873
O 21.251 0.051 7.2 0.7097038891663292
H 20.461 0.561 6.86 -0.3647393874493763
H 21.161 21.730999999999998 8.18 -0.34555361471107016
O 19.371 0.241 0.33 0.628705763899962
H 18.451 21.790999999999997 0.04 -0.30260830616508994
H 19.681 1.011 21.599999999999998 -0.34000707153153864
O 19.341 20.281 3.18 0.6419052495533979
H 19.171 21.111 2.64 -0.3473509405783888
H 20.241 19.911 2.96 -0.316138351242194
O 1.071 1.031 5.2 0.6552279836097661
H 1.371 0.311 4.58 -0.3075370655484251
H 0.681 0.631 6.03 -0.3329728446510968
O 2.181 19.261 1.911 0.6688991630730055
H 1.371 19.271 2.491 -0.28626605659825555
H 2.211 20.091 1.361 -0.37854562361043553
O 21.591 18.971 20.331 0.6841680167100446
H 0.2510000000000012 19.811 20.121 -0.33298110896180677
H 0.3810000000000002 18.321 20.781 -0.35480728416089147
O 2.061 21.181 0.071 0.6878848404250899
H 2.331 20.591 21.151 -0.3094491479779702
H 2.061 0.30100000000000193 21.590999999999998 -0.37244924908281773
O 19.371 0.241 18.951 0.627020817211732
H 18.451 21.790999999999997 18.661 -0.3221749068185352
H 19.681 1.011 18.391 -0.30565272623343887
1032

O 10.726960706683188 10.734144010484975 10.914596556513414 0.6845028784478311
H 10.304348080472792 11.593654877797524 10.917657071551277 -0.362355143974036
H 11.711089014525076 10.415553027829795 10.914671664286702 -0.32297835089741156
O 2.249042953532284 2.749905267832445 9.960896099633436 0.6922012202207855
H 2.601674200906965 2.584241617422912 10.880028292887696 -0.3621860150384486
H 1.3728358629598518 2.295143791521966 9.840968121995417 -0.332197381080651
O 5.690259282380337 12.751525540299312 11.65055399760691 0.6611485137970989
H 4.757726546684797 12.677739023418491 11.289264344427501 -0.33123865165518074
H 5.803449795202265 13.635967136291068 12.090096546316742 -0.3394433127313925
O 15.54983214341596 15.110675419884693 7.030188203944994 0.6761797638068279
H 14.98847407262356 14.959225675389874 7.833606268333402 -0.3545323610478075
H 14.96705972775551 15.210448803629523 6.231856419191895 -0.3567420730138491
O 17.431869929076274 6.177523436638746 8.559514583137041 0.6569283747746324
H 17.759554244600857 7.122245360028061 8.567011951173049 -0.33302698247971807
H 17.942703728264846 5.641902450971972 9.219980865791575 -0.31470908910085804
O 11.351824002904454 7.031030220622344 7.1710424639715376 0.7123916924363511
H 11.919400315247291 7.800686190588254 6.919490247763253 -0.34925796775418005
H 10.755771433209679 7.287240120082304 7.936513682545785 -0.34520830644849065
O 17.549844415404824 6.069760358804369 2.309941846650414 0.6734565923342002
H 17.42854777923244 5.932985129365896 1.3171452175401632 -0.3231277491295378
H 17.24859199143459 5.263058850611677 2.795741026709979 -0.35109141390626664
O 7.679419865264257 11.441313636022162 10.230370941125797 0.7019506702026295
H 6.899643384535181 11.607528253494515 10.830729139117187 -0.34480204620901667
H 8.020477827582178 12.317126229737333 9.876661071054757 -0.3558384330102855
O 8.499631834163138 7.981516803344276 18.230226312892793 0.6766568704853313
H 8.4653002444994 8.742719149926625 18.88200204791795 -0.33954759244808397
H 8.717866147375542 8.342195373193261 17.325932501619384 -0.33505763500734476
O 6.850526959445347 10.120218801376692 6.649213906427704 0.7187662385827585
H 7.544893130596646 9.96396986629399 7.355003738814707 -0.3563471236611002
H 6.112920326766558 10.68488150038027 7.035978445090645 -0.334034691058677
O 6.8604327310005795 11.609957041844286 18.03185819691417 0.7307426447833913
H 7.454426332607108 12.401744348714484 18.170868165012156 -0.34827422104605676
H 6.008243373213892 11.919929860768283 17.623761984815143 -0.3558974037390623
O 3.349289897536842 14.350837278498721 10.610031703454995 0.7092847875314785
H 2.570572071357548 14.03954695285659 10.085213718006267 -0.33584458778242177
H 3.9243065383220874 14.937850793190298 10.03828965586381 -0.35275654071240115
O 14.603152299113786 15.050952657791067 13.391308968080988 0.6592246807344653
H 14.842495880104064 15.9951263781559 13.652928936367948 -0.3550882605844601
H 14.448630126025865 14.513956351847899 14.207015723181849 -0.3368240284500307
O 4.379220300297199 3.920368833393426 14.990641948340892 0.71614546246931
H 5.198255236692129 3.352034036098982 15.074949636520351 -0.3589270095417705
H 3.571140276359486 3.34485795314304 15.02933569876784 -0.3345324888979654
O 2.3086609743670072 17.130963349176145 4.829967400162384 0.7102347076803763
H 2.6499010104863783 17.89946540549476 5.364584075777163 -0.35353313863246305
H 2.7478382107809933 17.13044755434111 3.933780542729361 -0.3371304930887197
O 11.270754286532895 13.41121747460556 16.901386757629062 0.6944654116616862
H 11.738885623580487 13.412917617197225 17.78170869554134 -0.33140557190115894
H 10.788112810266295 12.543485051551402 16.791463723705878 -0.3611128608114518
O 2.302347029994647 14.341674706008307 5.37951725300047 0.7016805031670481
H 2.0437595217863342 15.304886992777408 5.384007390987907 -0.345182175784732
H 1.5997314699030691 13.799461596670355 5.826108494749102 -0.3536588689113701
O 2.4007567233704936 10.910558719813057 8.859076625604326 0.6899585635942147
H 2.5326294496519837 10.07148515994809 9.371679002921075 -0.32377095960108404
H 1.853424351786417 11.545073279934616 9.413234826777813 -0.34625615396371934
O 6.19991935876444 17.862555040709463 14.38999563660377 0.7125649621936789
H 5.2756613007791895 17.696650800119393 14.742888746932117 -0.34630663302787346
H 6.481687131661149 18.783267570483552 14.654511298614121 -0.34137736908721794
O 6.059159056497253 9.640767598392092 1.230500057465241 0.6825156375387591
H 6.133370711992333 10.480701261278371 0.689204770253444 -0.31363448946838723
H 6.51859703025182 9.769906117767945 2.1029223381517657 -0.3684509758873573
O 15.939264995842885 1.140781016321087 14.800447554618108 0.671749150824775
H 15.759200599767782 1.8088773187535658 14.079622256251755 -0.31539921323885733
H 15.905736126175604 1.5955962030738833 15.692919403939632 -0.34696176203102325
O 18.422881367469444 17.670753589927127 3.5908296578917396 0.6852246768217523
H 18.956750283116722 17.38315253741004 4.386599186977285 -0.35452078286247257
H 18.72270674086752 18.570293502610795 3.3012537564528466 -0.32266487245356246
O 16.891004695511857 9.219802916213927 6.119678096923208 0.6995082828551196
H 17.835777646641148 8.928140077353307 6.19632078301541 -0.3201347327631312
H 16.81425928271292 9.867316239547556 5.365824404909048 -0.3438486547277193
O 16.41057093199286 11.079954414760369 4.318720545669955 0.6834895098469698
H 17.269557857120848 11.106798603896461 3.802690253172515 -0.3454242821639403
H 16.5499584272508 11.548250429323465 5.197367751926168 -0.3643401540478265
O 1.1300889305955715 7.372042475178148 15.968653547752021 0.6838137420118855
H 2.0119917677836003 7.238580856503033 16.418502726482643 -0.3589949245142666
H 1.0011744245299827 8.338031396435605 15.754748387857157 -0.3381270243403677
O 6.130014825941861 13.652349210550515 7.259460535335412 0.7580856524051356
H 5.63578306662044 12.788067255724952 7.345839678825254 -0.3769362591222418
H 5.896202005521508 14.078756797186674 6.392940428288644 -0.3593113242825011
O 12.929856685519558 12.281111142935 14.230999593461277 0.7479381394748987
H 13.306830904079325 11.55358510477849 13.649126822390851 -0.352297333176955
H 13.450567994013658 12.328882728129035 15.08134943938812 -0.36043585331921724
O 8.08760948749876 0.042392778942669865 5.019621363545973 0.7515023875003468
H 8.500401003575146 0.958211739544806 4.928719106942761 -0.3363655839962746
H 7.096323079456782 0.12152365037729823 5.083021594791095 -0.3630773429134837
O 15.248180267849758 9.991038255337664 1.8994932990936877 0.6047167192227754
H 14.627375657074527 9.227914574151697 2.0265440589506616 -0.2907747919295143
H 15.728433636463029 10.17496825544476 2.7549667053020466 -0.33137574567470873
O 11.869246100497822 17.920655440204413 16.160923609869776 0.6932641797405878
H 12.110484919401777 18.518166425059558 15.398389339860998 -0.30662237273631343
H 11.942800931811206 16.96947415910787 15.854151041228196 -0.36468328443751163
O 3.1713285564846347 2.509136995802538 18.01105054021419 0.687560985976762
H 3.8788786886003987 3.222987792516265 18.073827495182137 -0.330867876319886
H 2.2914133875916436 2.9032422742410344 18.292373013213982 -0.3488886018001429
O 14.662030087724595 14.169989448780404 9.531157979315033 0.7340868810103212
H 14.075751702985578 14.227752527952944 10.336721071305618 -0.3455636570842249
H 14.515933514633186 13.290614870782818 9.074898673702515 -0.358339297145992
O 16.6706736925966 17.142023097971236 5.719315642118304 0.704247902853651
H 16.26283060568608 16.914466200310308 4.835883407422103 -0.33849453458414214
H 16.48899212011091 16.407669948052018 6.377894035953407 -0.33929416638863463
O 5.97993109501725 7.289821506505151 2.7012880178705108 0.66026006018408
H 6.220651399117045 7.976582389571924 2.021198950113424 -0.34948852002663555
H 5.197884966461922 7.617723098234547 3.241938963450819 -0.3354735469619221
O 12.80879231008422 3.4503537545027214 9.441518481553873 0.7108497212816847
H 11.948778661749415 2.9526918290944444 9.307932117385421 -0.34092420875417273
H 13.430644926727092 2.90968166317566 9.998819823373761 -0.35084002406519676
O 15.762389542702042 16.619710904655776 3.0701350846940616 0.6983808399137876
H 16.652314249665935 17.0813753841627 3.097510996429286 -0.348739910414833
H 15.550400897893972 16.384252704079973 2.12770420688759 -0.3518852737850061
O 8.069801039544362 6.048727468915682 14.650633744491047 0.7495968595616294
H 7.593800033405257 6.013160198098188 15.542805479709505 -0.35577354997429655
H 7.555100424482913 5.507514942172985 13.992325195811846 -0.35611602237202067
O 13.94040716260647 4.688437320419659 16.741245208716123 0.6614258616336306
H 13.739769902986474 5.121762469787161 17.626690997927774 -0.35263578861989586
H 14.719949670262924 4.0658822645588675 16.83415150527298 -0.33248670902509725
O 9.73198704630601 8.901378794432915 15.721056417056154 0.7445598104701121
H 10.194562209173945 8.052762863273673 15.433687571176598 -0.3700639909764296
H 9.174643803505452 9.245272570413366 14.972786010204263 -0.34537435465538724
O 9.910431179647368 4.100404814582092 12.419156738615222 0.6684909233419924
H 9.144840786940811 4.44293303774442 12.961164615992313 -0.33658425003223813
H 9.565696442383866 3.592967814182472 11.62583500481353 -0.3372286413169582
O 10.410702932144233 7.00942587954792 4.289876844577405 0.6958809608535619
H 10.67565462638041 6.96892440462267 5.2488523023827485 -0.3379934010989265
H 9.563869698535557 6.497022816312823 4.152026892705873 -0.3638715317121963
O 0.7602883265002583 8.109255390388576 7.890887053966559 0.6304908688990336
H 1.7437075399314577 7.988767289383023 7.982397828843149 -0.32402572223902026
H 0.5216255769390234 9.050524706038308 8.096481675857223 -0.3031783030063312
O 8.650547614886037 3.4810329020083235 1.9490032081124329 0.6792444476490953
H 9.2376439853777 4.108266960459549 1.4607776765664877 -0.3446956457843946
H 8.837617546916137 2.5457044562230324 1.6630304858711353 -0.3354365913519497
O 17.191403134587972 5.849862861411869 18.309785036119273 0.68309862186321
H 16.92409500541021 6.744915883085194 17.95136595230441 -0.37063650398825343
H 17.16839598081139 5.170088805560555 17.581411575129547 -0.32989446984037407
O 13.619811268567334 11.44197684424745 5.448754217141757 0.6835144523989864
H 14.44503883642498 11.150439943620874 4.973630963882619 -0.330108504340198
H 13.13509385424153 12.11388753667117 4.883278240194314 -0.35499966131005833
O 5.499512206901719 1.9587476588287958 8.84943892298644 0.6969786860749494
H 5.450811917165601 1.9084986126350354 9.850805169424529 -0.3360753210157096
H 5.5216827295944775 2.9246913408979007 8.556064058029465 -0.3286256398106747
O 10.08111104679329 14.558445478989384 4.770056526511056 0.6839673683469325
H 9.616659025831689 15.282975240025387 4.250165524465326 -0.33900124971003076
H 10.049951436216823 14.764057862256138 5.748545166727324 -0.3295798728313434
O 3.5116120137352405 18.01013681309367 8.530225426305883 0.674818141470034
H 4.004964876624582 17.146607148410492 8.587954715193938 -0.34690440138373557
H 4.1594066299708885 18.78616178286423 8.493648515246914 -0.3585831584742514
O 17.951593361656577 10.66072678835056 8.729429870057102 0.7078912987790034
H 17.328260359554356 10.502623123127261 7.9667783009236395 -0.3330316022956985
H 17.43361983802057 10.777637105715819 9.57854726078821 -0.34803083862500916
O 12.270655845172689 15.501199770180891 15.060442910986836 0.6581312644800477
H 12.333987403664336 14.73465401995675 15.707334482064836 -0.34595528419822485
H 11.75093588716542 15.238023524051792 14.260288044109569 -0.3336381797081186
O 3.209188871734425 9.431161838771446 2.4182525070926 0.640543302999184
H 4.024543263884813 9.824938659520932 1.9979804406727801 -0.33029015062475553
H 2.9331536397400257 8.607424460765936 1.9306563438486597 -0.3120690865071646
O 14.583541512887647 7.348942449021377 7.279718868647737 0.6503414611237766
H 14.52904962471195 6.699823535638182 8.030301432860075 -0.3498645378279126
H 15.382326116530828 7.942525450551814 7.411348941207875 -0.3262958979447078
O 4.6120016274735045 12.65997473802939 17.27068833702206 0.7132161073278898
H 4.109624206597246 12.671319610307581 16.415567343833626 -0.38602712069976464
H 3.9837684560568363 12.477767758011986 18.03137086635416 -0.33168074558953653
O 11.109568832878944 17.760066837999172 2.371230343735424 0.7021257916136641
H 10.500796122316737 17.13528929284774 2.8656206950645506 -0.3534366764121427
H 11.422611136948978 17.32621694379567 1.5171773198706215 -0.33500799877065646
O 2.019119042685465 2.850208488424338 14.979186830038607 0.6118302462473935
H 1.2201290716917754 3.4420744917560864 14.854322149416546 -0.31190741069688144
H 1.9148985906152383 2.355030852487599 15.84206618886442 -0.33711557511167045
O 16.319870622489795 13.772190952552753 0.8109178892341841 0.7087843503528557
H 16.011515197443106 14.711827385443737 0.7145935133022923 -0.33142783301631296
H 15.56009650454972 13.135634453194754 0.6897285605038544 -0.3564845906728763
O 4.641312568958094 17.431102131088174 3.228812093699293 0.6669203625754436
H 4.973190330153396 17.80965677472867 4.09025158419051 -0.3432815149677778
H 5.39714611941074 17.358578679475794 2.581956461432831 -0.3057497533589423
O 14.001869016892861 1.0705239395000996 4.259639923649725 0.6397578730755846
H 13.75824572368786 0.7056641288110497 3.35837296149513 -0.3454744804170139
H 14.988942876473455 1.2313666014255473 4.295779247264238 -0.28377375880703737
O 2.4909883686638863 17.85195608055017 12.410600274454422 0.657484971943779
H 3.0593870666683696 17.2032858695332 12.907616704869822 -0.3360850825219488
H 2.326624069970171 17.518860589973897 11.48703930720724 -0.32727984164037205
O 9.401812157654524 16.980267640445906 9.038639926681327 0.6792451185956123
H 10.201572096728452 16.412165359819497 9.251460653648232 -0.3318718947787114
H 8.902743265564343 16.577839974420083 8.271639410285342 -0.36595014808118786
O 3.8206894221683148 7.000458732094006 4.800259842387506 0.6848129216401349
H 4.274992377740656 6.10114715444058 4.771812293143378 -0.3583786702200651
H 2.879124005021265 6.896757873113002 5.128872809146176 -0.33587929844863107
O 15.4701238556719 2.220598305034653 17.29052154657435 0.6873760926863071
H 15.420232615913541 2.589215255691409 18.215498013458824 -0.3738137731063125
H 14.75001527298366 1.5324927178119891 17.169666246542505 -0.3259510536811041
O 6.140936031074921 1.2205582766035883 1.1702937298507494 0.646650520662627
H 7.122045731101314 0.9996059339559782 1.240383411721559 -0.3360648688209108
H 5.829610595790011 1.050760228947279 0.2374170909228508 -0.32791065546421927
O 7.811121445720949 2.640798391795895 17.490633432791245 0.6524293286436427
H 8.474882344398246 2.032369327603069 17.91750046222092 -0.32512036470402694
H 7.076393800915589 2.838187120475017 18.140907045196393 -0.32792775896781057
O 8.880896967091473 15.142954363304188 11.950631599774681 0.6966627003285657
H 8.649275527008788 14.893733619407675 11.013994584644594 -0.33941981647024755
H 9.495470466509891 14.452524619882103 12.34219036870999 -0.3502176132493734
O 13.510796004005211 5.902791851139525 14.329956352281647 0.7095570074164135
H 13.791431283717191 5.469752704528589 15.18481869008304 -0.34577763133698103
H 13.765400250716858 6.851249226642966 14.34163665351146 -0.3612015706320221
O 8.029812584798288 14.021192633689516 9.238681340095813 0.6958929158325535
H 8.932457065369766 14.158797637170832 8.829637661276552 -0.34031265044323744
H 7.324227966227864 14.040829990281189 8.533308152490488 -0.3522151840029095
O 9.220899075008232 5.03066321861993 8.990155240664306 0.720933873635456
H 8.975053794775263 4.941738187591578 8.029348923551195 -0.3786922114193464
H 9.70290173593545 4.2159104370786205 9.297245132481372 -0.3338641793644683
O 5.391238372102328 0.6399995028160667 5.118986057690123 0.7314364769164134
H 4.57416117823596 0.6509734558065571 5.6987507500608245 -0.3452177320943193
H 5.420943663502717 1.4704871495827712 4.565147979175175 -0.3409265848505235
O 14.339107481420301 11.882484548915142 0.40954950195164375 0.7203788133565583
H 14.658151452735922 11.118543524168587 0.9732713995870408 -0.3817283406216534
H 13.432544670740539 12.139804830576045 0.707392876556477 -0.31662511851957154
O 9.352796714310834 2.3584499895942206 4.799261539021206 0.6421023274790238
H 8.873847602811521 2.765279946485175 4.015937442203679 -0.3397555733116727
H 10.340719829094697 2.3437505499227136 4.608765879830198 -0.3469178191720652
O 10.760781248997032 6.830792430347573 14.64041334806359 0.6544580543525118
H 9.961903837701055 6.223362198477206 14.6704194238869 -0.3594017139180107
H 11.57556342544784 6.2954749376708605 14.399538877740794 -0.34356109508213606
O 12.270985041448109 15.702436405038577 7.929835258449144 0.6600601840532416
H 12.485824306244403 16.446997558255546 7.28306877506461 -0.34046626912303757
H 12.95559271659861 15.700672834537663 8.657023964379771 -0.3214366624375812
O 4.590506416089443 11.519308552850111 7.412478871705932 0.7329319071789442
H 3.887987072647449 11.246856067502458 8.060873810820866 -0.3609281995384047
H 4.324486894795239 11.24293992213395 6.484634698106351 -0.3699378203345455
O 12.712854155475396 17.971644526244276 5.909803711298246 0.7018837183404454
H 13.148933192020548 18.615058121448808 5.27638707779324 -0.3529623746624121
H 12.209649549599892 18.485232557023906 6.613614241223019 -0.339493755079725
O 10.320993138535878 5.491833005533797 0.16090945192957484 0.6517507499009447
H 9.90956425456821 6.313803365095492 21.607096584846808 -0.32955332383898983
H 10.953301208286614 5.753310157522286 0.8908137275472302 -0.3201480761404888
O 5.611695912141596 2.2203291609365423 11.471601095149015 0.6582101860598604
H 5.988648806331468 1.3745994319106598 11.838483642664922 -0.3315408223316484
H 4.728193916739819 2.4156185094198612 11.912777181973963 -0.34821928276533365
O 8.660646721289368 4.538901166266139 6.421607339638796 0.6689881042244927
H 8.341324192382793 5.261191578678148 5.802063908497184 -0.3320459765446744
H 8.898919164410842 3.733680943627013 5.892208099123852 -0.3457445836370415
O 10.168240349243002 0.39093161716201336 7.530755889037963 0.6461298738718018
H 9.452517081755493 0.43644094854074467 6.842418839316185 -0.3518818440659437
H 9.929817284178045 21.535080575013403 8.21991149528923 -0.300270290270226
O 14.290325129356676 11.732785832030276 8.670879780718066 0.6585791401431518
H 13.736400036228519 10.893244051136 8.608673757010077 -0.34330804321362973
H 14.54683721883109 12.023876136395202 7.750125525268834 -0.34952690706643774
O 14.661462172236064 5.89920022317661 9.920156647745282 0.6641871274423616
H 14.358268601965383 4.945482339123615 9.985725267886588 -0.32730931337107916
H 15.392687255939903 6.061369720704389 10.581575764114838 -0.3318784305791418
O 18.571819712642267 8.330612964690571 3.768333251763871 0.6748901572669208
H 18.992606875195147 7.690764098070658 4.406347132676043 -0.35474105175197546
H 18.190452301867982 7.819531487794431 2.9930657485228167 -0.3276203688066639
O 4.881316725902211 13.849860382636733 1.7407535808792454 0.6972584769917995
H 4.011413463709686 13.71031873945893 2.2082482827359375 -0.3663361416276395
H 4.714168415962967 14.110695715813545 0.7809618230300824 -0.3013007325588193
O 16.641997689056645 12.800263586582204 6.569241207602884 0.7253441311755298
H 17.6257729999556 12.878287025604122 6.71106761503706 -0.34068483174081865
H 16.18957427677949 13.6359362310688 6.8780849718941734 -0.34752898218867223
O 13.90097334570916 5.7488892078817235 0.7772167994804894 0.7428782337468443
H 13.36749717861383 5.537535085123876 1.580969183644414 -0.36281953964199565
H 14.811564248994863 5.340547192396894 0.8709915560593919 -0.3596969884145451
O 5.2701957710914575 2.5604568986083853 3.2804863217597093 0.7104283517266197
H 5.537131243031628 1.9729131896257968 2.53031319437104 -0.36601533214987014
H 5.265755431373595 3.5130625954674723 2.9675920814050296 -0.34974565120512036
O 17.54095882124756 12.23117079868261 15.879407637437845 0.6798504010954316
H 18.45851448717982 11.842060616613587 15.753484839608708 -0.3344890597522885
H 17.620008041559267 13.199298155435178 16.11787975055807 -0.34871026274196604
O 10.639177038279758 13.471109768625855 13.40144211015606 0.7438419516519588
H 9.844290023617493 13.232604905019736 13.957949598487005 -0.35568737889529056
H 11.475700761624882 13.206516055013648 13.888798903034223 -0.35141354090035737
O 15.92152742584915 16.289655041599744 16.24991997551562 0.7275431323382016
H 16.191262900510424 16.63227156491578 15.350695715405974 -0.3647781935515816
H 16.70819524447548 15.905150500805705 16.715498380665913 -0.32925888396168446
O 16.379718642310475 10.991243480214555 10.788671095370654 0.6683509843952562
H 16.428025351944395 11.806887441096585 11.376820844345872 -0.36719119505653075
H 15.515141845167928 11.010269204110168 10.283909828373924 -0.34146741256205326
O 9.151262096920785 0.8888145684776408 14.02122778684062 0.6821314430726302
H 9.401325125150274 0.6848313847998798 13.07716464076173 -0.3327051362409834
H 9.87160186894335 1.4496735025425944 14.44548142348239 -0.3198626219981686
O 9.800363362225825 11.160654093967366 17.19043134624614 0.6866699904172666
H 8.804904198692665 11.2166421320708 17.285108025071754 -0.3437488003111011
H 10.028511746268459 10.364865623873543 16.629652614522847 -0.3554899741676568
O 7.051469876123985 10.501027255304002 3.6814476744268783 0.7298126411795778
H 6.909944643198447 10.5731907999711 4.67182351713458 -0.34434850227331326
H 7.887171656804273 9.992639614103034 3.503580908077261 -0.3718392579830281
O 4.09788931867795 8.129114778208628 12.510824748994414 0.7060913214714386
H 4.959045896493718 8.252869138673102 13.018882515129059 -0.3383379029683691
H 3.6848774246406575 7.264344225830599 12.777811891451067 -0.3425737314574414
O 12.741377418496214 3.8598047880146997 12.621187362488783 0.7186783392764919
H 12.955179609352841 4.602816581200387 13.270177263579166 -0.3626170439782812
H 11.852479227793834 4.0311595059185015 12.19285344091646 -0.3626498982386709
O 0.6392758760104598 15.640042701053646 13.31111264530813 0.634974997044532
H 0.18373892492851548 16.462129920199125 12.96632989386932 -0.2943579320780444
H 1.6220828487319097 15.835892130138248 13.396452899711978 -0.33952309325375263
O 3.669736155130865 11.003976933005855 5.009921610280365 0.6489223565389466
H 3.6014787913069037 11.831734955053951 4.4501130001942375 -0.33373642801541614
H 3.7071208874511328 10.199733082516698 4.407086724671899 -0.3489885650976895
O 5.660526934374365 5.370279484420446 8.649353285135899 0.680419023567941
H 5.787633778190973 6.028717765249963 7.9114730494689995 -0.35738322766602937
H 6.117585969845338 5.719838518527391 9.47864284148243 -0.32397998206139067
O 12.521663451288964 13.47795658012535 3.880908535020608 0.6804647698927866
H 13.012858315416404 14.254279442827688 4.274777299543993 -0.35023575003442964
H 11.568272775650671 13.507404120006699 4.2051851179542 -0.3431085215222458
O 12.720998515454182 14.452153502891985 11.421834075897221 0.6645669641734235
H 13.193832621990042 14.57670722086255 12.290568833147164 -0.3446727001577169
H 12.066649116911291 13.71139795440549 11.504761589103943 -0.3396077261298531
O 15.821995432298838 6.3909447941598465 4.718769752643475 0.6589166182673596
H 15.511970823659585 7.001457289322943 5.450870891897912 -0.345608085903227
H 16.321657631083248 6.9095460125429335 4.034944954035025 -0.3114768028671747
O 3.5390793927839095 15.101429197813843 13.292292735456572 0.7113151347517803
H 3.325124214092322 14.662471956088169 12.424123549564447 -0.35740660973223304
H 4.502975658971116 15.361395797303674 13.321514800043326 -0.3511710852015608
O 4.021664984979779 7.511426205125988 15.983539996202827 0.6613529732820531
H 4.70076692537689 8.055159701417374 15.51279936734461 -0.36116280282653046
H 4.428266231447301 6.6301484434514775 16.250297789730624 -0.33845948825025396
O 15.870087107416666 7.789368777901768 16.70192122245916 0.732829832676889
H 14.954661050628594 8.169486496416022 16.649119560416747 -0.33495593412587366
H 16.47002475465979 8.263899422920224 16.04543034590383 -0.3623434644376732
O 10.132407014551008 1.0487922222625694 17.70088507886809 0.6445118398016394
H 10.192520378072134 1.899593515892641 17.181958513201856 -0.34476968796427
H 10.444342096952365 0.29242011152747216 17.133246288459524 -0.30768922292984435
O 5.039895427013138 0.49900176941155505 17.400855793323593 0.6851470821386609
H 4.621868130146794 21.761107546721654 16.70096307348411 -0.3291799868887183
H 4.376988887910409 1.1875119513629961 17.72580188235673 -0.34665356423140337
O 5.730235699779768 8.698813472583803 10.29090502595704 0.6628747284487613
H 6.169447825255903 9.590306028232037 10.198548622266225 -0.3291819612631651
H 5.096339908609057 8.694434419858586 11.063120540979737 -0.34630714155608566
O 13.602526822485766 8.618473058485048 10.450119843222424 0.6791064785503247
H 12.845680337670808 8.629064523145507 9.788595787130973 -0.34212192463145497
H 13.971672875949041 7.709820179557276 10.543741314431013 -0.3522945306703633
O 12.091870666613788 5.251254269198324 2.7492986865155618 0.7168351575678198
H 12.221532931927555 4.412358796920107 3.2865802755564277 -0.3585449799628988
H 11.803611165798987 5.985224295999849 3.347804493457406 -0.3402051404070513
O 3.0696567477826084 2.1289868040741378 12.310607531882898 0.6329689783309744
H 2.837200728278048 2.504400739042979 13.211824335872315 -0.3488701529542506
H 2.7687013090812984 1.177911456274002 12.249965551560981 -0.34005403546133894
O 7.319541723145772 6.33962347968627 10.641051223937799 0.6829271662303613
H 7.913740137480694 6.079092088643287 9.88247362002914 -0.3565944644876865
H 7.042618612024618 7.29497924865823 10.530497049694555 -0.34672836968400755
O 17.281949789207246 9.35294690492598 18.541489620169035 0.6747437718506211
H 16.819053952019456 9.280748438004306 17.65217539960365 -0.3265970920202137
H 16.66187464535919 9.79314244493735 19.19651395605412 -0.3448470557394465
O 3.070017125144897 0.6301558240816724 6.179105067149361 0.6081075299325978
H 2.9511620710567157 1.5604643392828954 6.50361964194308 -0.35348933494295387
H 3.015067049851091 0.01098067146079758 6.949306141741113 -0.2815007102243978
O 16.221009224246284 3.6677405370321075 3.7404831464514228 0.6706680316400098
H 16.244724915686497 2.9096240143074574 4.379518258031464 -0.3380472047809131
H 15.740619224488041 4.440065632117449 4.134699455595033 -0.3449355250533699
O 10.232647688334016 7.658819725088909 9.660385697182129 0.6903916476588599
H 10.383663238577038 7.869412269482131 10.61985412742039 -0.35319470965885014
H 9.934809503260015 6.707632860835489 9.57732022476454 -0.3443391763822987
O 9.801500694970358 15.731348935369544 17.001760136003252 0.7329279424428563
H 9.599468173584448 16.170783396854155 16.121800516652364 -0.361755354437708
H 10.18496012656893 14.825833025385604 16.833964768246748 -0.33574136298406587
O 18.5898705996501 15.180271081731783 16.0517923633592 0.6915737913423179
H 18.727231443440367 15.455493166847731 15.095379618640754 -0.32738108791413756
H 19.420919500013802 15.404481655281064 16.577636243168676 -0.3391988719817455
O 3.500595224708429 8.978504769295263 18.041834077192373 0.7133902271568502
H 4.261105267565182 9.420350450893514 18.522190144314504 -0.3273861712171796
H 3.8543457328068564 8.509424021763422 17.22182956835677 -0.3542752227453243
O 15.401224678112195 2.740257792536248 1.2509088154995385 0.7024395416129581
H 14.791013406445655 1.9823103353627491 1.4797865987718222 -0.32902504922103926
H 15.61924691004212 3.2598336595623696 2.077860013558896 -0.347366476893876
O 13.03259871586408 8.380217386965198 0.42111905772590646 0.6607515370329811
H 13.374557351526054 7.448361217008827 0.5695511708438823 -0.3580299074315717
H 13.21630759027417 8.650643618673724 21.298931721549177 -0.32521255332862753
O 10.68208174274929 13.329907026043074 8.4917750747576 0.7028461494945102
H 10.751785392441983 12.493192358414031 7.93684713939156 -0.35601608058716727
H 11.300499658175113 14.023067636781159 8.132261399822173 -0.32800367945819997
O 3.189535850598413 8.099025297483816 9.492557471400884 0.6988605315138194
H 4.112002482868295 8.458016782466384 9.537027571567858 -0.34691086521203507
H 3.1278365283987566 7.246471462659372 10.007835889684282 -0.3410122161635366
O 3.388781341737097 5.090116780637784 10.060587860126546 0.7521930311520624
H 2.874674163156605 4.261401923257054 9.881245866151588 -0.34862526629810586
H 4.161436901794141 5.139323010561765 9.42009218572669 -0.35981038928763487
O 11.381472015184187 3.8013714701153813 16.78040527025318 0.7101807812522019
H 10.936208498066025 4.426655790767279 17.417629698961612 -0.35829313023501796
H 12.306824952473196 4.113136322428656 16.618178589537827 -0.3370901080628421
O 11.600307459217852 2.0682345012886794 14.771054571443946 0.7089956429413311
H 11.59809062153291 2.7059649624565467 15.543067055205038 -0.36399503126598853
H 11.87787061248169 2.55053726811014 13.947686692704263 -0.3259513795940804
O 0.881651920072401 18.011172379767373 9.269777432133836 0.6839671304090569
H 0.4590906784895226 17.158682293381144 9.009767140335105 -0.31540001205267665
H 1.8120080807802657 18.046753742174253 8.927838263171239 -0.35006988245750614
O 5.040677865665497 15.680517080334614 9.09921154612454 0.7032377680785906
H 5.695670379964635 16.41894469068698 9.191415051060126 -0.3660247556833345
H 5.475117013608046 14.882506021508275 8.682726733801896 -0.3542052266811342
O 10.021371333732047 7.95855914646643 12.381160363989665 0.6824975916477491
H 10.432317041993253 7.640997763748592 13.243242327660878 -0.3473090216591107
H 9.063117536837913 7.690945609609383 12.355234422010444 -0.31673095552610053
O 1.8898295390976245 5.199350140738678 17.220813495462874 0.6711044307563245
H 2.475948923383476 4.804337336146229 16.521057819910443 -0.32991767673788297
H 1.3088470222909545 5.907318743739175 16.815779648747053 -0.34459283392503715
O 13.689909599535628 9.501013406171483 16.60089015141052 0.6827072002979353
H 14.08358594657393 10.395558929452688 16.797905216339736 -0.3449821034692788
H 13.793911327605016 9.29760982884178 15.637789321039431 -0.34690238376237115
O 8.149241808246611 5.721319445351217 3.250254711594961 0.7316292559278637
H 8.21949044662572 4.828692219431182 2.788199255363509 -0.357394924289564
H 7.212405987325664 6.059993919074169 3.173239587150183 -0.35003232581454935
O 16.570720947477724 6.040780521732146 12.061943267798249 0.6909453294355066
H 16.195847072738115 5.35666342415384 12.68462003251312 -0.3340521557077307
H 17.388166547380465 5.677821715776826 11.624692703338438 -0.35996941825856044
O 2.520008726947655 15.640858104512107 17.44183815202253 0.6927536461550599
H 2.225084570134855 16.213969070210467 18.202068763679122 -0.325656905298197
H 2.448560484661484 14.67155239923343 17.699757145949828 -0.3456531301382194
O 6.708100555940216 4.638314324164384 12.691703046201743 0.707411694007031
H 6.371664104735728 3.7514038217288275 12.387643648624561 -0.3425243881109349
H 6.975575963580249 5.173594345304004 11.891158638032508 -0.3505660839407124
O 9.300849943841566 16.78226436930551 14.649003898110333 0.6569987006322595
H 9.07051427263363 16.59770558230536 13.700970413362015 -0.3436360659779022
H 9.60440025569895 17.717984490710716 14.75617102866441 -0.3361832506988943
O 4.728677916056322 5.00118516424533 1.9104186910430097 0.6489242182871484
H 5.341412545006956 5.797868832305526 1.9480788032561793 -0.33272092654632435
H 3.782998235150777 5.30990204069139 1.9726892803603533 -0.30392918621091924
O 1.5907958202641292 11.369780219617585 14.661437332214408 0.5579266254884336
H 1.8152138341545476 10.764921959584209 15.418716792714312 -0.3093919451156717
H 1.6903818961663057 10.879823222311623 13.798353179785607 -0.28615869140899575
O 13.470745032601249 10.591164094097994 12.342568542531188 0.6688881967783447
H 13.706370935952132 9.967325064261374 11.603517378056006 -0.3560715520912692
H 12.576652524790388 10.993870515728938 12.156798836930971 -0.33029212099114336
O 13.020715093494713 8.549615108970759 3.0908857966288705 0.6836378191971022
H 12.157819790673539 8.235821647128807 3.5090727086604003 -0.3308598885356261
H 12.977529359967123 8.410021570248443 2.099475015217394 -0.33371181709281594
O 17.590110602884987 17.472722662914276 11.541506966813357 0.7142017270829495
H 18.20303102858626 17.77076725184197 10.81308334170994 -0.3505880044143185
H 17.207456070098566 16.581839959307423 11.308847023633184 -0.36158440311054785
O 12.520692575121886 17.31066140319367 11.280633741168282 0.6883945043438189
H 13.357518567610141 17.358802932211063 10.743321905501327 -0.3373447760867183
H 12.29092505511704 16.356244150517142 11.467358645774732 -0.33756064476550096
O 0.8299996889236497 12.580783016941153 10.221565134098565 0.6425431037212928
H 0.7773610149069455 12.574801806211745 11.216241409508935 -0.3304908779919701
H 21.822511544709027 12.168096427001695 9.841391665166023 -0.32779601862102214
O 6.879270034485583 16.620840755977678 17.16142561658683 0.6610986729645854
H 6.322432369941087 17.429893581810088 17.25260084710442 -0.3319186353043623
H 7.394995570790728 16.662858367423095 16.3024297710276 -0.34552475148009243
O 9.03128804102114 0.8603117354723285 1.3299084495013875 0.61062854874364
H 9.537817013404567 0.8721390727090207 0.4645605650211475 -0.3103929427618688
H 9.588922495004132 0.4391316286358242 2.0356836178749473 -0.33296439977756054
O 17.261994876183483 1.3482717513267295 5.22939787961102 0.6779085321352483
H 17.991846188528612 1.184580584454157 4.558460243358676 -0.3627998494868696
H 16.949657360429743 0.48040995377182955 5.61201671243466 -0.32174963043476845
O 13.881605986223633 15.73203531802728 4.7687331073869235 0.71008768695157
H 14.548316840157888 15.850878719691691 4.031385279993987 -0.3563405223452114
H 13.476440293266037 16.613779065604458 4.9985068139901845 -0.35573721738601416
O 12.8002233726255 9.26822200275248 6.71865711956391 0.7351967092405509
H 13.391956891632997 8.464165801330923 6.74587411012823 -0.34334574472415336
H 13.201522207775612 9.95642689729112 6.119544831085507 -0.36196239662618046
O 8.29998217545892 12.730217080278058 14.221062295399152 0.6565399510459375
H 8.251827169638329 13.063902920944527 15.163136720617109 -0.3566535759559093
H 7.439990390380995 12.921073189526592 13.758983728907024 -0.3498660841882588
O 6.720011137107348 16.160308950399333 1.540472142601969 0.679269737928375
H 6.813025973562928 16.258405529923962 0.5455431085319087 -0.3222854592608656
H 6.3132252456054205 15.264363987403481 1.7498656105381645 -0.36254338979150047
O 16.50107472921433 17.20266112022386 13.940751620486974 0.7099111122922945
H 17.03120264087797 17.3015282539764 13.099809435949515 -0.35591746898719456
H 16.229626628632484 18.09991001778605 14.280641870549138 -0.3511705411545508
O 18.410861197910467 1.7495450689628238 9.631900243627934 0.6720240830822162
H 18.79665638934038 0.9036558405520042 9.271767497777452 -0.3415203971206402
H 17.428893234958117 1.7667670056004101 9.445062511751734 -0.35972215188011014
O 2.628728825955533 3.260728708766448 7.198716905004662 0.6792645277806804
H 1.8432592026922072 3.7774088422262055 6.8590040324509145 -0.3445329095291759
H 2.543108229314511 3.112259770477823 8.18346324391597 -0.33698352937231324
O 11.941563637980002 16.12206592976327 0.31335768602383085 0.6870584487309355
H 12.00485749655733 15.19372452287858 0.6839453169236284 -0.3688624980237387
H 11.347858195102146 16.11541332111203 21.341973296913554 -0.32719300133398777
O 8.218815912811401 10.022395657343871 13.723509948199471 0.6757072940083138
H 8.619511175980351 10.01015781826146 12.799533574489411 -0.3465724907540684
H 8.317550101705358 10.935323715195508 14.117282697346088 -0.35374335140084423
O 9.159160065352768 9.100619271537067 2.9091896325617235 0.7063059398555449
H 9.789827406263802 9.484645891378065 2.2349260719643755 -0.35555381615343984
H 9.56125784446959 8.267926805089404 3.3107848819767023 -0.3432395438367952
O 15.040802277021042 16.070953209045477 0.43865325906142927 0.6356923479875185
H 14.119226770308662 16.43762928838351 0.5117009841803888 -0.3275382083315249
H 15.423162209896233 16.27426551179991 21.374207474219215 -0.3433686158230963
O 3.7206861819497945 12.880992698884864 14.901131850608001 0.7187991083768628
H 3.5945995971965905 13.808062389599105 14.562393033071363 -0.3505049099565535
H 2.878115876542129 12.358255416500544 14.771605117863245 -0.35813700441368446
O 16.1406795464953 12.921586810972586 12.89033264499042 0.6855270769749211
H 16.743178628273213 12.950423689949512 13.687195553559597 -0.33457947909550767
H 15.393558143823176 13.55993207705922 13.022173182887384 -0.344686474226901
O 10.391241347908132 10.98178571455552 6.959735089656773 0.684384549546766
H 9.687597867543682 10.505629733416205 7.506337116961825 -0.3419376963496382
H 10.976387982854867 10.303852651543492 6.525421201240766 -0.33474786941908574
O 10.138976666200788 2.359533697800475 9.710988227479938 0.6890244755803376
H 10.054453015765942 1.9967495551943066 8.780742280872756 -0.3473966910811298
H 10.118356764082115 1.6024405229871659 10.36312818684057 -0.3304712067486937
O 5.9017901729485125 14.870277397707085 4.909082273365984 0.6613612928737025
H 6.324791561055481 14.28992328456907 4.208051671274465 -0.3409911861868641
H 5.461981802502583 15.659519227063237 4.4720841744823625 -0.335407832923281
O 17.09072112733704 3.8495292851596337 13.810327644832904 0.7068948736431873
H 17.82183109460919 4.54245708119975 13.846573253081274 -0.3408290481357953
H 17.364683706871688 3.101957437306143 13.222237407880064 -0.3602293503401517
O 2.5511580451508373 13.482057545708123 2.8984066558836 0.7076877945228066
H 1.5864283690825138 13.491065057287333 2.627896995202258 -0.35480633245358284
H 2.6646910522028775 14.012149195622188 3.7381271006704604 -0.36055010491490525
O 1.0507902022709281 10.131298387038807 17.26088656238421 0.6643659484361564
H 0.2820907850451639 9.798839071374502 17.796251852484797 -0.3016255477815797
H 1.8982637569345033 9.826725353514977 17.67674604871712 -0.3516092441696037
O 6.718759753851274 2.0291916644375285 14.892072726900745 0.6706850594606957
H 7.622115400843442 1.8716261738603321 14.483134490319584 -0.3312061408725441
H 6.802210879395593 2.078631316883279 15.874312323012052 -0.3256729094099329
O 14.401400645036867 8.55974093622598 13.98070440076481 0.7004200013277799
H 13.832191010471456 9.080346437771563 13.356352663470656 -0.34703844986994137
H 15.357922863824697 8.675067787238726 13.73648603708045 -0.3497684291205818
O 11.829851017323312 13.35163584119427 1.190616037502009 0.7391014541689511
H 10.83689770208769 13.237956011978305 1.2113796629526912 -0.3800396603122872
H 12.168314799186236 13.509530042204407 2.122052564504937 -0.3435775746066362
O 6.128742421839533 8.419813354676696 14.311515679823728 0.6884456193571911
H 6.696233012846153 9.2286910650679 14.144079076113426 -0.36048601995183416
H 6.718359544721866 7.622089206129401 14.338393742484987 -0.3378928912300845
O 14.93138033794377 17.670659599500585 9.592574867410274 0.6380258528133904
H 15.264494667383415 18.316024606537837 8.90610980587346 -0.3301370127780312
H 15.585056017402986 17.607432724630584 10.339757997320195 -0.31445697347213863
O 7.160901436702362 5.649792065187795 17.082568172343844 0.6476087256800103
H 7.355249533013133 6.299105667756013 17.822328480635 -0.3472791290054992
H 7.750834097534344 4.845467496822934 17.17006684014462 -0.33197148542709976
O 14.500797946704523 12.199604265093113 16.331910613331072 0.6899306854139295
H 14.420852919016658 12.103916299822998 17.318522543606225 -0.3645924141009691
H 15.461851281523407 12.131120994637866 16.064681071735606 -0.3394522574066424
O 3.9015022144482177 17.41003812780674 15.601213686075509 0.6599004313190866
H 2.9898505864576572 17.818709534046913 15.582998294704415 -0.351348704714457
H 3.83319588378712 16.47629169978198 15.920560920018177 -0.3662738195025418
O 16.742343530815006 8.82823848370328 12.54084755596879 0.6965854702878342
H 16.472616731072243 7.942930165230885 12.168948928755654 -0.3521520466766216
H 16.746534511400373 9.508004400599294 11.815165356981176 -0.3580470725495041
O 12.250788777565164 3.2500588308407745 4.489670895028076 0.6988555838016328
H 12.897938183583932 2.5173533022372743 4.390063577330815 -0.3556711434748896
H 12.447817657853015 3.756047451334018 5.328518134058227 -0.3492645234736558
O 5.9417258377938476 7.448709569911042 6.5201041042547105 0.7006197961757596
H 6.436445927483007 8.298309520495756 6.33691495340432 -0.33797967049776567
H 5.0570535463950845 7.4724438851607164 6.039962336431151 -0.33521777666778385
O 17.770258621785466 3.421299354011835 16.41963559332641 0.7123475646081854
H 17.601416407119725 3.729389065272552 15.482525627523074 -0.3364967894294484
H 16.9312197861356 3.049322003180845 16.797419203998903 -0.33559814325555914
O 17.30095011866363 9.33937145942408 15.171773462642209 0.6943592442547839
H 17.684065772608637 10.250783593334113 15.31801177866724 -0.3452601158876948
H 17.217727060158072 9.17738185581452 14.177593549451887 -0.35524104460999817
O 8.589256957405285 13.7411283993055 0.16017555557848162 0.6556854315525227
H 8.126568629210917 13.890820555025494 1.0426140316915273 -0.33766523697280015
H 9.027196265932416 14.59361769471971 21.69623205150077 -0.3074483419404581
O 6.610212446885112 17.9012659485507 9.531562725399114 0.6670600293667466
H 6.143181971496229 18.781973200799484 9.401338355006732 -0.3390840836257989
H 7.603851186514974 18.020848194634347 9.456962451152648 -0.3361977325516736
O 8.589283830088565 9.560240359955971 8.609059828589583 0.7172474092639902
H 9.131221975857144 8.870982541801478 9.088854058253068 -0.35148724990581004
H 8.272362430386023 10.24865456333 9.265127536412724 -0.35617092175268694
O 10.831723803584977 9.840645257477162 0.8692154857506402 0.6703165130836188
H 10.594266064729114 10.365356354350771 0.051371986876936 -0.32889465726065015
H 11.644382623529639 9.280444179687466 0.6761334164298105 -0.3311131657955
O 18.612124093075845 15.691848149094378 8.508780109378252 0.642423303054743
H 17.901256644178336 15.572663800705037 7.80227136683451 -0.3354555228846485
H 18.625259271217082 14.903419689807691 9.106383037584157 -0.34525662704918747
O 2.2102459970451753 13.140347468306421 18.439994870090764 0.6400003478868168
H 1.5602029932573656 12.411326081670639 18.22936229085562 -0.33943969936970797
H 2.250237640659729 13.277709113565221 19.419084627818183 -0.3290833368789008
O 0.7887819612496354 12.400630437420165 6.529743090839286 0.6367464600929846
H 0.7870373247879366 11.934848632633823 7.410610726491007 -0.3275340553155771
H 1.6109309647897407 12.11842120632737 6.018016184517462 -0.32742626717855283
O 6.72063287305457 13.912838045797885 16.240740819156887 0.7186111807875006
H 5.943230458423808 13.405094566289602 16.61808241826504 -0.3524538174559352
H 6.687828175150163 14.858245680895731 16.560949694056298 -0.32932148605952805
O 18.241816442005895 1.9207243543491044 12.27240178107585 0.7046601709076388
H 18.198682562493953 1.0184213246720917 12.715786007455412 -0.3218574816180375
H 18.26773400845984 1.8094292017620919 11.279436486354376 -0.36639395762408067
O 4.280139289658457 4.238341084199956 5.199916119718378 0.7116138855079903
H 4.576925092460692 3.51853804383286 4.575393932988302 -0.34778144864258476
H 3.889043804562192 3.834755167607735 6.029414260360725 -0.3415710723120462
O 17.049920690615068 14.871577981758278 11.039140745493624 0.6763604450470382
H 16.12110900551128 14.616969770334311 10.77599488564031 -0.34497285926061105
H 17.314664120119044 14.372443389835535 11.863150728045035 -0.3451330232608889
O 3.1713544700180156 5.470280548103454 12.801645617963391 0.7040640221987644
H 3.553927170678861 4.879415364065907 13.519577660847228 -0.3314573403126073
H 3.570384093141429 5.211777314628806 11.925002325603534 -0.3585510661830258
O 8.118470893599845 15.860265428044329 6.871231055434395 0.6592003692931989
H 8.438546102072852 15.966302796197606 5.928917212994571 -0.32273358245110784
H 7.329210457360902 15.23779411124474 6.888607975082882 -0.3498574312367071
O 14.240490259023442 2.1401809017871756 11.11934799508761 0.6657328348547367
H 14.757182875656037 1.4940598007546357 11.675793265137749 -0.3181033432706373
H 13.748836748403422 2.770362009778341 11.734238199798382 -0.3576633020716319
O 10.012650809795735 0.3380445989392788 11.540878525261625 0.624203650345815
H 9.383518219408355 21.440219855058572 11.229828555206208 -0.3605528444713122
H 10.936807434000132 21.81490684926229 11.538461284199835 -0.3224354285875708
O 7.699341966655937 13.300889376582452 3.008473575947243 0.676066560534152
H 7.238634842073134 12.434707492487165 3.179171959104793 -0.35408156843014904
H 8.608130111475761 13.268021084126744 3.4185114452998913 -0.32459104489693824
O 6.180316303211281 15.670539526270513 12.84054441779923 0.7159671997063723
H 6.130133990363158 16.49135939003929 13.413255441387342 -0.3551279823293346
H 7.073287059969526 15.640015978831727 12.388366605644203 -0.34257226634384763
O 13.52101728457588 0.5208467829178488 1.6824729594236107 0.658917029020186
H 13.87319746967764 0.10738757034051266 0.8387609773716076 -0.3506127897600664
H 12.626174696315685 0.14414352195873248 1.8787241136582986 -0.32017602933386047
O 13.000950315392613 4.530842988962133 6.90950562409803 0.6918067347700427
H 12.410084426478678 5.334091859763491 6.9526430112384325 -0.34458943942001985
H 13.151673236695917 4.182201991563304 7.833264094203037 -0.33664228886513725
O 15.9307718512937 2.210051753392286 8.821318792545265 0.6608952906306502
H 15.089496656299255 2.200933708301523 9.360091376387816 -0.34717877232124594
H 15.948946477499403 3.0419481084834734 8.25491163648683 -0.33688031492694803
O 0.389696414493237 10.769626028529471 2.9993438784337685 0.6174093670303975
H 1.3817444837023083 10.65844191213198 2.9112008536270406 -0.32457083172547174
H 21.81563980696605 9.90972010490181 3.3209628237964797 -0.29309785425858925
O 8.749381973071664 16.46098635612097 3.369533186116152 0.7145098901212865
H 7.979305992785815 16.109455978896644 2.828185531453115 -0.35481649686136796
H 8.421436403024181 17.172008235011635 3.993557556992676 -0.3638567529103476
O 17.551562636547413 6.070304363357287 20.932219702889974 0.7038232627413947
H 17.432829429038552 5.941597858960794 19.941906633996375 -0.3732578263356787
H 17.253057442846004 5.264985322762585 21.423025926994995 -0.3101641451082554
O 6.059485842778619 9.639449540630194 19.852147202948537 0.6941441537775024
H 6.1369556016229385 10.48004277072581 19.306878561317564 -0.3545082384624755
H 6.522338118673225 9.77079532089683 20.72925212689085 -0.33760322745071103
O 18.419693071052365 17.671567407488006 0.3800546998676046 0.6535540093990404
H 18.959826115745084 17.383366253209275 1.188423287499511 -0.3525023589447204
H 18.72529141209582 18.569797527250074 0.08944413661182751 -0.30299027340739526
O 0.27044739844450977 15.962451016408705 19.78984392635229 0.6415551538844761
H 0.08317026899635492 14.998889366658739 20.00382079566341 -0.31887165335837997
H 21.767142544462878 16.54398160053259 20.541806468173668 -0.3184010644277586
O 16.409996335372664 11.0824800017026 1.108790702660764 0.6157950538029544
H 17.26829689408096 11.103607165620115 0.5861684558602909 -0.3097926474334779
H 16.548311434537197 11.553158579256225 1.9981701426463974 -0.31588899441337137
O 15.251141436676159 9.990176116093135 20.52208368241348 0.6502506172152778
H 14.622596044063808 9.228606396602284 20.64077520550694 -0.3145425734289804
H 15.7396624092308 10.175556086695064 21.382690396980404 -0.38038610643562487
O 5.978919724591032 7.291338662226549 21.322751840035867 0.6415007225644223
H 6.2248359540829625 7.977954274439098 20.644501368542493 -0.3485923756478446
H 5.199949660182108 7.625802557667124 0.034364459267959196 -0.31849781834326385
O 8.650278952714288 3.4779745974913814 20.569994900682257 0.6055969011771172
H 9.244391382100774 4.107843155619456 20.08077850002614 -0.32902907449129337
H 8.842687930315876 2.539181492930949 20.284058972848825 -0.2901192496617868
O 10.08220734693599 14.561107785821982 1.5621878793328834 0.6652071591320503
H 9.617769879024124 15.278405200272317 1.043393270358335 -0.33620502402324004
H 10.039646165721873 14.76184261440844 2.547493357093798 -0.31548982119335645
O 3.211569149005083 9.431085261121629 21.040620374735358 0.6376867408770321
H 4.027872757203455 9.826132539728691 20.626126389474937 -0.3266733538612363
H 2.9452238811876246 8.607574668201954 20.5403597692918 -0.30851482153212273
O 16.322001996545456 13.771638618179574 19.431023126232574 0.7061924464301494
H 16.001507364766926 14.705674383942295 19.331382228135457 -0.3429069135689129
H 15.560652147339594 13.14140484583133 19.311057736479754 -0.34425104237215354
O 4.638526223072329 17.43224461824538 0.02059295319382718 0.6468482760117009
H 4.966538882830825 17.819969749662153 0.88555754800892 -0.3469890231749584
H 5.406751167945889 17.35597367054324 21.200107109591052 -0.316777832077485
O 6.141182757376952 1.221679959051458 19.791382324606605 0.6760222168481853
H 7.1133956018498425 0.9997274634242163 19.863077447752275 -0.31384828458376424
H 5.831501336074647 1.053414192001139 18.865430860181533 -0.33238748718604505
O 14.340917666917347 11.88133835198099 19.031526945802035 0.7165046796899492
H 14.661758545642428 11.120475468429609 19.59762609073118 -0.380332633926046
H 13.424094136292345 12.155646431922001 19.333328617411638 -0.3377331646989572
O 2.9690752424860922 0.3490890378123041 20.33025471947762 0.6191247860718025
H 3.4573417875642196 1.1871501895153893 20.120297253155076 -0.320345680577227
H 3.5821634909746414 21.530905189806052 20.779708523170598 -0.3307255512052164
O 10.32195666769621 5.489735374234077 18.779569910498683 0.658027470477565
H 9.918509136434173 6.305771014837459 18.391858153978657 -0.3500406275432665
H 10.962446186192333 5.741848667832656 19.501178152360502 -0.3279980587208364
O 18.569741581892686 8.328993584857313 0.5621346117386838 0.6386324908970478
H 18.989279502329758 7.692526043679266 1.204286825265752 -0.3247865323584548
H 18.18509853805074 7.813853668436402 21.614732423845275 -0.33168833107419804
O 4.8787443157452985 13.851775143200484 20.35859779209496 0.698346778361886
H 4.005484113913607 13.704393923917573 20.823108816118303 -0.35856782627049744
H 4.70896462162631 14.108761549162384 19.413533301759838 -0.31425198283805467
O 13.901246673985948 5.749575813766653 19.403419208205477 0.6486976467321934
H 13.359969012167397 5.542646007434077 20.211562646305794 -0.3499247775826221
H 14.807374211567252 5.339796701054122 19.492586120596556 -0.331990929873485
O 15.82024023720967 6.391171772966105 1.5107205061360276 0.6264468437620065
H 15.505915265094076 7.00306083171732 2.244195019545081 -0.3352766830156779
H 16.3233615298716 6.904363451475552 0.8255420780555788 -0.30968467957833823
O 15.399782974669106 2.74044743205612 19.870115498064834 0.6785078999160747
H 14.791309232036546 1.9870091113019381 20.10603748245229 -0.3533539459645859
H 15.620238821835796 3.25522639173497 20.699895682938216 -0.34647388805084434
O 13.031972271715656 8.38166020389875 19.04162543491557 0.7001877148382816
H 13.370682875579629 7.459261159239688 19.19413870395344 -0.335247996217537
H 13.210525205992786 8.646546703241718 18.09209812970784 -0.358488214822294
O 8.149344099390795 5.7200410192128945 0.04007102497911428 0.6998020888056065
H 8.222586038993652 4.832742873817159 21.415663817390264 -0.34166064188056533
H 7.208771565790363 6.053608421000498 21.792106181476218 -0.32632032609229766
O 4.728407020707506 4.9997541941425085 20.529421886317646 0.6429413878633099
H 5.334295547650562 5.796801650637385 20.56986723148378 -0.32883432395528855
H 3.777476593898835 5.307748517897142 20.58821472254528 -0.28909027484216543
O 17.261084215765983 1.3517914919767553 2.0209683166130175 0.6246068496407471
H 17.985881882677795 1.1737358056464255 1.3473186672041684 -0.312285511441902
H 16.948918843626412 0.4715900914314148 2.409332762422859 -0.3009937376993769
O 6.720433609433361 16.159720215857384 20.161894608535977 0.6923978591515683
H 6.811956085898079 16.258208187179793 19.170816481439584 -0.3615180333409894
H 6.3215895081568245 15.2705526010419 20.36965283371416 -0.3464141954582337
O 11.941616258985075 16.119917773416155 18.931814850996677 0.6986956910507169
H 11.998910019260407 15.193791498420335 19.303681668347476 -0.32311896289673914
H 11.349416544170493 16.12945171905704 18.137536508932108 -0.3521454085250255
O 9.15952391170069 9.101433508839664 21.531648511981423 0.6557332250204722
H 9.787392937917401 9.472649296189665 20.84877029929126 -0.32791341762468784
H 9.559752610591215 8.27004709355667 0.09201460993258558 -0.30985563558697393
O 15.04138474902317 16.072500195628578 19.05984284059828 0.6656223863874491
H 14.119877013907645 16.44478378029691 19.131632919287053 -0.3267357838577224
H 15.417216076793805 16.271586855426165 18.16128808225961 -0.34958078982668517
O 2.551911211295692 13.4793241462634 21.521247765163434 0.6555859699259914
H 1.5874220092706133 13.492487606585449 21.25363233356244 -0.3518098765688563
H 2.6670224889230223 14.011390777229828 0.5355821858973705 -0.3408177101981201
O 0.7517030423216607 3.448294092847528 18.950549955674646 0.6373737908054409
H 21.653791093110545 3.1637443117477364 18.662803432173064 -0.30217680588287854
H 1.0620207321191024 4.216498269017272 18.392234013329542 -0.33758079315937495
O 11.830836302206157 13.352314476472259 19.811361663915047 0.6614429931021135
H 10.850746527300432 13.240658633182811 19.833758626560495 -0.3393730133405255
H 12.17232248235775 13.499079042493065 20.739189897398276 -0.34763694822223745
O 8.59019366678191 13.739608830465087 18.780025751240007 0.6495502152743207
H 8.122758566341654 13.889540449954595 19.660892661424423 -0.31532398542103657
H 9.03126977438951 14.585716222929882 18.48583280069083 -0.3393441696050318
O 10.830133427650319 9.840839870498076 19.49031984309749 0.7122333587324654
H 10.60291804751694 10.372198193205147 18.676891289913545 -0.33955731484850393
H 11.640526856291793 9.279978572138619 19.30293528079531 -0.3478219106132616
O 13.519482674158459 0.5210309959820378 20.302034216364504 0.6575105053106824
H 13.87702248593686 0.11034349846646356 19.4707420845269 -0.33511632059995133
H 12.62502381082948 0.14059073610339187 20.503908716041025 -0.314967113281553
O 0.38963160022367144 10.770212162598446 21.621847336277945 0.6174974320512776
H 1.3770884633192293 10.661996585544534 21.533086893922324 -0.32137841592605043
H 21.821545790694167 9.91400515310573 0.11079034911153407 -0.296278249600184
O 8.74990715034319 16.460793748782436 0.16132200183895445 0.6728531203520713
H 7.980581331755798 16.11725060363979 21.448252735768502 -0.3462283369850173
H 8.430464750595002 17.171168570194116 0.7840661467303269 -0.3443624854283076
O 4.378622715541629 0.7101784396169294 14.9912204540292 0.6911745691226558
H 5.200704102033282 0.15752524587998237 15.081657270576706 -0.3450463852974823
H 3.5709629949408406 0.12950993258770582 15.03277190946468 -0.3175437431792629
O 15.941581565396298 19.761404543967675 14.801498966040398 0.6651354839792658
H 15.756504028589069 20.42818447206042 14.081230795316731 -0.31607898836981196
H 15.905190459317186 20.220790042369085 15.688606182051995 -0.3536328219745303
O 8.09160880094093 18.658985339188835 5.020359991538105 0.7111702353808305
H 8.4935163140613 19.573374874864296 4.938445897405892 -0.34509571833207975
H 7.087790938331879 18.738265846794256 5.07332402444083 -0.36424042266075396
O 12.810183715877322 0.24135040004094946 9.441445126862154 0.6846041137924486
H 11.951107258053101 21.57616342357551 9.304781278847129 -0.3193052695866354
H 13.43077907974137 21.53276485309297 9.999001324876128 -0.3544218427701342
O 5.499712631657408 20.58114016683595 8.85028094508209 0.7117911270954664
H 5.451937698237575 20.532059092763408 9.843984334768493 -0.3367936128489587
H 5.512238293397447 21.536263535782158 8.560495409148702 -0.3514456312981824
O 2.020428070709042 21.47254011018124 14.981926485796082 0.6248296376109019
H 1.2303618824930618 0.2388739091124901 14.851304060914067 -0.32579576144008915
H 1.9163834061558478 20.986433837933983 15.840654734642097 -0.336770888476676
O 14.000229493985291 19.691858282259624 4.259090126413081 0.657530421665899
H 13.754377985959593 19.32262046793498 3.3683951262035663 -0.3500352742728644
H 14.989841297586157 19.847531703163312 4.2994602562778566 -0.3308199318031976
O 15.470987818463747 20.8405858766574 17.29163585609538 0.6797020995589076
H 15.420222472021186 21.21361485928612 18.20908274496629 -0.3618448682271279
H 14.746492261684216 20.151613865396317 17.167544008616808 -0.32400484019382214
O 6.139733457618112 19.838385924773355 1.1692220418349992 0.6357369632670595
H 7.117323788830146 19.6199545296685 1.2341085800179183 -0.3307475964769837
H 5.830789808497012 19.670145865108836 0.2436292760941264 -0.31594062456369765
O 7.809322127995413 21.262196564883876 17.492582943554172 0.6470657001278282
H 8.486826105064848 20.65119371007208 17.92756386830014 -0.31500088286424943
H 7.083958043940316 21.455103985841912 18.138051371307327 -0.3254574161372912
O 5.390833273232904 19.262572247070892 5.119480896250237 0.7655352315689452
H 4.576078094093975 19.266583834089463 5.701097343932749 -0.3527374156022076
H 5.4253346803600255 20.092553367071346 4.573964029670367 -0.3890463992782853
O 5.611882709292876 20.840642605337163 11.471552317363145 0.666530985324087
H 5.989516887930096 20.005492229667336 11.83944868240869 -0.319225215016939
H 4.728223431708313 21.029094466783704 11.90733793152165 -0.3554193337104574
O 10.16901242801609 19.011099422138667 7.531088362211502 0.702416738425466
H 9.44409619919161 19.06019349785405 6.838224205088521 -0.3261862616580523
H 9.930531697587606 18.320401334171333 8.222084281846003 -0.33789206445491626
O 5.269292569959662 21.181655217628474 3.2797835292257527 0.6692939000779381
H 5.5388523259788744 20.586332827075406 2.5334823841854504 -0.3336152671598034
H 5.268908351907293 0.2995802874941813 2.971425102965937 -0.3331781037181075
O 9.148773945158794 19.511775865736297 14.022427420331221 0.6947758245935898
H 9.406084410901355 19.31368223244397 13.074004332193931 -0.34323779963986467
H 9.869151031036061 20.079674031515555 14.438662671007819 -0.32510213780087527
O 12.740048290512924 0.6509623413315206 12.621225397888402 0.661260058773979
H 12.95602254951468 1.385870763214245 13.257930725340666 -0.3450012402811896
H 11.850777290994994 0.82279454131467 12.198712325836691 -0.339127263483329
O 10.130182174056824 19.670213678516532 17.700388755125196 0.6590433481288436
H 10.19093142193296 20.521190074155523 17.18345471112591 -0.2962212976415527
H 10.449554354806729 18.91339682863481 17.135409116771232 -0.3638184925681761
O 5.039763033621744 19.121991521306246 17.400627542411556 0.6890584996691587
H 4.6175728010018355 18.54881322295685 16.704381025561457 -0.35911524991228283
H 4.378378529653098 19.811592819755113 17.724608246184832 -0.32589724930654296
O 3.068722047191286 20.750842774539688 12.311504716903771 0.6737297691088209
H 2.8366501076803323 21.12175960059684 13.209211699055913 -0.3305859805268402
H 2.772112759655049 19.809525507904024 12.24948385070556 -0.3553234594664165
O 3.0706109267413426 19.24999262667991 6.178782993288158 0.6371560214715712
H 2.964240019901026 20.188191856318504 6.509142323748828 -0.342740803367679
H 3.0181053708683003 18.61722362391286 6.945435902644529 -0.3398040092534196
O 15.399131489911124 21.361688265650752 1.2501006111859598 0.6550219816358913
H 14.79982619609343 20.610760204780746 1.4783588012678646 -0.32920271355309083
H 15.621342717660193 0.051375302219539266 2.083313690325545 -0.33469231633256935
O 11.601269274914085 20.690975720706295 14.769955578603845 0.6320296363810227
H 11.598838810314914 21.33477662250935 15.542710603888594 -0.30939029276160956
H 11.88407046538533 21.166926405699716 13.942250447907199 -0.33150982753712577
O 9.029980539015988 19.481325335131814 1.3304243520869556 0.6378190507807595
H 9.544078925121033 19.492240458543364 0.47418844893885265 -0.29422383037752264
H 9.596545434071787 19.067945194380396 2.0422357749248885 -0.3479545375071308
O 17.261542017883954 19.96934397512069 5.229809739495835 0.6985165921419281
H 17.988968744012315 19.803936216307477 4.5663080992994205 -0.33809629806021413
H 16.95677726599232 19.10250711958625 5.607174735159384 -0.349349998880675
O 18.410941852376457 20.37122451989981 9.631294890884792 0.7278815874910052
H 18.807994646729412 19.519022038117217 9.275872855620646 -0.36669966274395127
H 17.431018224744495 20.392607283311833 9.43955693421387 -0.35835191265127664
O 6.721415000262182 20.650006283076955 14.891000033502044 0.681082650982213
H 7.615864595793322 20.493137910634157 14.487737453637703 -0.3483802219964013
H 6.799652879982683 20.701187318275117 15.886329677879896 -0.33407158009187876
O 12.250768248294827 0.041460543343106435 4.490943990707918 0.7023191236628756
H 12.900346410645973 21.128640485537712 4.38208633073332 -0.318282423572949
H 12.45049217499526 0.5398503715047033 5.325749490101665 -0.3575848135003711
O 17.770620021900115 0.21055006378601715 16.421497899517334 0.694124208284455
H 17.595888897898078 0.518011528065584 15.4887618605243 -0.32533132465821124
H 16.932017197108323 21.666265732131667 16.799707954739944 -0.34250877078698605
O 18.239866341469835 20.54094536072356 12.271277340132858 0.700091311015278
H 18.204901952051483 19.635235067910894 12.717327313032987 -0.3064935619387348
H 18.271828042326245 20.43166224531433 11.279814158840665 -0.35394667013046577
O 14.241906767943227 20.761412935850448 11.12213714239142 0.6686633052821911
H 14.756643625755759 20.122253705208006 11.669664390636472 -0.33340266940686736
H 13.74998411691411 21.390171690732092 11.72304004917859 -0.3505529153074117
O 10.010132911266165 18.96106146651062 11.540830869806204 0.6671150174523701
H 9.378224253731519 18.242956410947194 11.228405476582054 -0.34144581635700577
H 10.936077498298424 18.60192148297757 11.540721154465302 -0.35256422514744234
O 13.521856057231513 19.14035423045317 1.680862761934161 0.6667425617005911
H 13.872631165544616 18.73183754802059 0.8412041186848085 -0.3258109154630803
H 12.616543173072893 18.759841963232503 1.8739541860926698 -0.35636931276684103
O 13.000895078952809 1.3206409775277075 6.910596763990686 0.654448497872572
H 12.415129386066912 2.1141918567331004 6.944130071906599 -0.3180147881796973
H 13.145749445779893 0.9741791003767394 7.838798184233884 -0.33145140891139846
O 15.929656580343726 20.831585375516546 8.819204219231825 0.6548133512890884
H 15.089211841548883 20.82422770460843 9.359407743791975 -0.34033760966444515
H 15.956187989089717 21.65636645166006 8.264301257596987 -0.3360048915030286
O 8.649777769168224 0.27117894455996244 20.570711796663094 0.6017553423376567
H 9.242796024796 0.9045489701783025 20.08732442290361 -0.30943242798989035
H 8.840021770673095 21.162968141164498 20.27297151938556 -0.31576030907382757
O 6.13968680386366 19.84004220277971 19.792542542688814 0.6656240364783335
H 7.113374353588935 19.62159988565365 19.857841766126455 -0.2948717903017438
H 5.830012979479551 19.668505632453908 18.85575378598232 -0.35194879802782175
O 2.9700437659309236 18.970948247845236 20.331608546718822 0.6598110176094583
H 3.4612348677542704 19.810242320184283 20.12257916548779 -0.3054029693183369
H 3.589146463407475 18.3199658355189 20.782932726724525 -0.3414535597312305
O 15.402445248103007 21.36239054042943 19.86999204491115 0.6672567882540505
H 14.789952489030185 20.610257247056946 20.099542036115995 -0.3441077085088995
H 15.617012540055539 0.054611717343670464 20.704620763253903 -0.3605641304862136
O 17.262119779522468 19.969573819254204 2.0214805402125053 0.632002096923939
H 17.986143300939673 19.80115653306339 1.3555584889946677 -0.31046195418655764
H 16.95633905123108 19.102173892826702 2.3989047604610283 -0.3183952272341848
O 0.7482857716557569 0.24002030481057882 18.950759502767472 0.6038314191992411
H 21.6615765731189 21.791887069947517 18.662095845697376 -0.3026372454887305
H 1.060324993742482 1.0129949379850927 18.391520027807665 -0.2985739108840244
O 13.520263714627644 19.139620753742435 20.299235075023553 0.6549730672605172
H 13.875685541595836 18.731249450823068 19.461680371262524 -0.32958572105038353
H 12.620946327144681 18.763870525785805 20.507602724813044 -0.3360258021098599
O 20.920599064641706 6.2801075500833115 1.1293111408825982 0.6123882598820316
H 19.989391191255738 6.262447727475381 1.4964537307814725 -0.3101110179609353
H 20.931987346476497 5.8863798807143 0.21380196404406787 -0.3111838193743601
O 20.870503565759233 2.7518627765298196 9.961180033942435 0.7455026398315923
H 21.223433649419462 2.575741999900092 10.887221279597147 -0.34677368363487837
H 19.988582683049742 2.3050363458633996 9.832383127017929 -0.35045581555975736
O 18.810317805428028 3.681488203590128 6.469377139662646 0.6417314424207934
H 17.993888956538296 4.112709169025757 6.865110359371687 -0.3182843723638453
H 18.53408800742569 2.9460930902008475 5.838141377750792 -0.3474174713079865
O 0.14300091678821347 14.351412631687456 10.611276905297101 0.6647905564200371
H 21.190704539323516 14.044984334312781 10.077687667182726 -0.2988346648857545
H 0.7097998771083833 14.934004494479495 10.036399489897715 -0.3364417112974648
O 20.930520522455993 17.130924196025187 4.828811488431704 0.6983631200061868
H 21.275169373135412 17.908411378590035 5.371677492966069 -0.3609558191705926
H 21.36838840526148 17.128428033260676 3.921618273871379 -0.32099987005262276
O 20.921362793084676 14.342825560350867 5.380429801291797 0.6677938706318303
H 20.662274306781935 15.30083038200049 5.381878646489824 -0.3293176989799902
H 20.205686667574305 13.801048541053703 5.8294408212525965 -0.33244751306708153
O 21.020777768934238 10.911092904468925 8.860441249906483 0.6854133875398967
H 21.16288153204555 10.079674917845141 9.382519290920387 -0.32421880363374267
H 20.473581441555563 11.55017704054233 9.405038769955134 -0.34672366295771506
O 19.840990777603082 6.430045506804399 5.631120124561229 0.6674610769735896
H 19.387645886806656 5.552165496533211 5.803162682588792 -0.33524659462932715
H 19.831190995655977 6.970845746864339 6.472403382185121 -0.34197863117377525
O 19.753180425368903 7.368846341061535 15.970556824748089 0.653991396191671
H 20.635722202466305 7.247826323160912 16.418784553533474 -0.3291142897225905
H 19.614923580088742 8.341304172730021 15.749882224534385 -0.35719504671871416
O 20.590868565148522 9.761263891020741 12.64008011397949 0.6759074070979949
H 21.485306355953252 9.314023354879303 12.501236825269562 -0.3613922834878083
H 19.862514755513654 9.112882773666776 12.451361923069904 -0.3194911503448793
O 19.381364434741794 8.10911882812628 7.889871414456368 0.68472592928787
H 20.37015089791189 7.9911251336636075 7.979062844662848 -0.3574691543455333
H 19.137500326197955 9.057587551832798 8.092665433532545 -0.3374759541165814
O 19.921788823668788 18.212070498369254 15.711751076577933 0.6784809982337174
H 19.822817776589247 18.070162176788312 16.698644829618587 -0.36830530620248725
H 19.063718901200726 18.569593088308615 15.349824017293328 -0.3085951448856189
O 20.63962546818799 2.8501822304108164 14.982996498608962 0.6634687651497746
H 19.83555231632459 3.449782596417151 14.85604768021717 -0.34352697549175726
H 20.541991469654032 2.3651152254839274 15.84510177934354 -0.32768172256112393
O 0.6118670747110839 7.000676248138149 4.80039336625077 0.6949246494332924
H 1.06879211470536 6.08878048998533 4.7785611124259315 -0.33344106175693167
H 21.498654235517527 6.888571505715671 5.122326450934251 -0.3322827553095915
O 19.40092603705544 5.56077696386739 13.861980394399588 0.7226395485251196
H 20.315989572446927 5.543254478920514 13.45180376619765 -0.3570450552374025
H 19.340647548536833 6.296127515365732 14.530028310021157 -0.35072561040063
O 0.8896833030264589 8.129595856821181 12.510853730720271 0.6547126347434942
H 1.7506109265382412 8.251895721293215 13.013771501931906 -0.336991573673461
H 0.469772419543704 7.25908924398043 12.779176187577404 -0.33145047419721707
O 19.261383964174335 15.640089556517461 13.31328278298818 0.6352374789327877
H 18.79829168663963 16.45432375280367 12.972199011866486 -0.3332107912471445
H 20.239490374694437 15.832730700208701 13.396616087662805 -0.3437732805861309
O 21.69203313696229 2.1284005063645535 12.31168300784767 0.6364943597909605
H 21.459148003697763 2.5016669731477115 13.208021500381644 -0.3287467990263778
H 21.39383870345465 1.1849964751324835 12.244062684513468 -0.33792435704053736
O 18.99229921097708 13.100597124196591 12.820124478277885 0.7158584917476869
H 19.520009434594055 12.61480105247648 13.505380299296238 -0.34077840565705286
H 19.217192345672405 14.082208165108257 12.874883784672578 -0.35985327201301676
O 21.811251439457696 8.100114005939195 9.493018558478447 0.6237013950497676
H 0.9140519110818288 8.460780163378303 9.5321508975901 -0.3346099752165882
H 21.751332902067396 7.2480124784652 10.0129925446941 -0.29625889823262064
O 18.700192912660743 13.259517238746765 1.9992379827705482 0.7072885910487692
H 17.768077846937988 13.470101176508988 1.6915945661956509 -0.3496549415167499
H 18.79911013753333 12.269046730369315 2.1286912588651528 -0.33820994139706684
O 19.501009316569842 18.00947759122968 9.270558774010608 0.710348389236108
H 19.08240053930694 17.15218297264836 8.998962097894989 -0.3731832287379072
H 20.439235083251734 18.041949461285373 8.931832856793907 -0.3390015464460937
O 1.8305940963791076 15.681517058284156 9.100177580926097 0.6429739423634286
H 2.483773457355631 16.416672329321297 9.18897535386351 -0.33821099838297
H 2.267846236548114 14.892135011793004 8.684118563452596 -0.33072130191401705
O 19.021472490076967 5.440738272805998 11.139409852863317 0.6745754845946861
H 19.870389606755566 5.118539329654496 10.726290658886189 -0.33659981327449406
H 19.145606743475124 5.585840859440332 12.124423411269749 -0.3366450076859918
O 20.51000240690143 5.2001766194474515 17.221188711546304 0.6653551452309276
H 21.100653380062482 4.804107043235159 16.52550322675143 -0.32021793463862425
H 19.93489703673602 5.906656551704086 16.81420303609161 -0.36582137739867293
O 21.14173277898011 15.641669959075212 17.439054477152595 0.6565233382406248
H 20.841606266958202 16.206962255673556 18.202198542247686 -0.354703039509627
H 21.069899513488902 14.676951228274842 17.705931287200965 -0.30801519247498454
O 1.5206524833191664 5.0005210175099695 1.9098484658097492 0.6207473368359899
H 2.1277457200393 5.806502338250998 1.9541967280702344 -0.2868332799159059
H 0.5682616239947242 5.310160450748604 1.984336339382724 -0.3280357478044661
O 20.21045602785624 11.368371285545075 14.65971303277694 0.6860375282148095
H 20.4262354614708 10.753024661258939 15.424685791198481 -0.33399685456268635
H 20.30989708075349 10.879948999957433 13.796822667700011 -0.36448463384564367
O 19.45151199604422 12.581820720762126 10.222048047889034 0.6925862588486815
H 19.398911290417736 12.56736033529553 11.223569294031975 -0.3611685544824206
H 18.61654970669359 12.174290494464612 9.842811732253187 -0.331360928972946
O 19.92091849988019 17.939311300636962 18.51152040552649 0.7540416998825883
H 19.51170007238989 17.206783268087904 19.034184664546338 -0.3651112173702621
H 20.563124925238537 18.44483268668552 19.09307432031037 -0.35481894478891673
O 21.251394482834993 3.25947502031457 7.20083913608793 0.7003676037092372
H 20.463231347761656 3.7684388636570425 6.85905248243912 -0.3455746972185101
H 21.159262891226078 3.111908429207132 8.174298656158765 -0.3377305590938171
O 0.5103403293344351 12.882238569920991 14.901178013193938 0.6614055794519853
H 0.3828897477068105 13.79792371341132 14.557058317136512 -0.2993965234068755
H 21.501641129445325 12.359000618579635 14.773030092394375 -0.3240808878331327
O 21.17054619186278 13.481207619993242 2.899537841778463 0.7356621944786186
H 20.212187792355426 13.495139296115637 2.622060993093968 -0.3540389728404244
H 21.290641739198858 14.008722479749224 3.74225177981568 -0.3325894438809739
O 19.67182108657369 10.131185419287279 17.261857871909495 0.6716215444022904
H 18.903295015833553 9.794167344003991 17.79896726262548 -0.36073328646946057
H 20.51669435102665 9.828404719168516 17.681022567408057 -0.2980811153146985
O 19.370640119645113 3.4498610822606746 0.33151616909195575 0.6155231674636621
H 18.45777584008948 3.1681429064658593 0.04527637555945251 -0.3061461449495182
H 19.687222839953236 4.216679454126397 21.601173370278193 -0.3104168719444741
O 19.34287486594746 1.6602956175022867 3.1800734295688913 0.6448950335068186
H 19.177539556830546 2.497996519632971 2.6370478342533676 -0.33412507685323944
H 20.236532385144148 1.2895103487059314 2.964211794778753 -0.32043240631347414
O 0.6912375990774037 17.413223612504815 15.601686856494348 0.6965317649464557
H 21.60985605736633 17.8239838256164 15.585822701080422 -0.34686021130986
H 0.6170877618533159 16.467084519871392 15.92160769822936 -0.35936332338177435
O 19.409612178401684 12.401006599554401 6.530842553742412 0.661860635261144
H 19.40338119134304 11.934755442102539 7.408376020744269 -0.3352167235248692
H 20.230662158895957 12.125995723500312 6.02157839137577 -0.3569823952681874
O 1.0702338435956522 4.2407169983758815 5.198179687090886 0.6733592493853449
H 1.3674226591396663 3.518695500066599 4.581624263044399 -0.341422501216329
H 0.6776488939320084 3.8387294459825254 6.019715845367246 -0.34452338347010036
O 21.79060164132581 5.4702355794079605 12.800415469393963 0.6306346987975955
H 0.3454345023727985 4.88005526224472 13.518739600638504 -0.3218918026147948
H 0.36498518788479045 5.211264147391179 11.923808977019378 -0.3642113393610993
O 19.010306723275388 10.771530385366674 2.998786332029239 0.6995295114490965
H 20.00717485345065 10.662778263346937 2.9134583577795463 -0.34791126031706554
H 18.610292532596294 9.91407367703113 3.3179237402615955 -0.34864833674023177
O 20.919803913483275 6.279812212332702 19.75124819881177 0.659349745080986
H 19.986484138336852 6.26192586932828 20.123696951833036 -0.31401584308230934
H 20.935113075656027 5.894642656337588 18.835010056021698 -0.3391660071024879
O 20.931365653932637 17.131594767085648 1.6199559393675367 0.6258285084954807
H 21.27533769609443 17.908088789781214 2.157234330927566 -0.29475867685182233
H 21.37709884367491 17.12788298554251 0.7217946890539358 -0.33532112640355716
O 18.890975581462254 15.960328620308523 19.79292568461293 0.6872958487454301
H 18.697503963944513 15.00621841079558 20.005017774480724 -0.36649842613529093
H 18.568755609398114 16.53473778253578 20.534980052622135 -0.33181431262404293
O 1.431087851258049 17.43093920139854 0.02057514794268751 0.6948753230470874
H 1.7565501749020622 17.814424129002997 0.8792231405311278 -0.36013815418100437
H 2.1967229060523934 17.359781121694073 21.199496919793418 -0.3442895504131621
O 2.1800130267776154 0.63992660410969 1.9104429536549072 0.6498931045406575
H 1.374434694545855 0.6541679587355406 2.491310811844502 -0.282555890206837
H 2.198333134732776 1.4687618375232725 1.364463178375354 -0.3457709304833675
O 2.0622182228528434 2.5603424693172365 0.07143887650979878 0.6568035916690391
H 2.331178295212099 1.9659742431201412 21.152349558694986 -0.30936659976568237
H 2.0679283150185364 3.507149642937397 21.589102383269665 -0.34991448432223404
O 18.700146915590338 13.261018069254606 20.621725603260803 0.7218687561619976
H 17.771899827364372 13.476453742676524 20.309883494510796 -0.3618887178541257
H 18.80591567279549 12.26737822710539 20.750721103956803 -0.35600289421129017
O 1.523056178525923 5.000649541125355 20.53181302302063 0.6147097352300239
H 2.1314502107454514 5.796505884036295 20.574480291180738 -0.29042219870061825
H 0.5733860064836854 5.311342371784466 20.592921151492433 -0.3285839887134917
O 21.169483654911858 13.482011148054935 21.52056838842161 0.7108526727805557
H 20.204744868454462 13.492474011331899 21.255038364458954 -0.3656852440764723
H 21.290512804423372 14.009864825104085 0.5285539719278094 -0.32181165910796583
O 19.37216688387592 3.4505886851891856 18.951522141757536 0.6747083264085632
H 18.444524084804403 3.168430305812697 18.66175486024957 -0.3143211273513721
H 19.68739774106662 4.217574987282101 18.390575109325063 -0.3388440089591054
O 19.01152987628542 10.769811876588282 21.621372153579692 0.6859830863166767
H 19.996463832182524 10.657639349563915 21.53034279692956 -0.33311522852400366
H 18.619759178231817 9.906143155100619 0.11657094439578478 -0.3524213408225525
O 20.870472834619747 21.370553329759556 9.959982324930502 0.737715389591143
H 21.226521322500346 21.20023399571974 10.87978507034115 -0.3512486348397562
H 19.990215145870255 20.922136291370897 9.83913721332172 -0.3378844246480589
O 18.81175671929479 0.4705122925284073 6.471531486854841 0.6437999861829224
H 17.991510746296978 0.9040172885782984 6.855782250611278 -0.32587115337620454
H 18.532743264382546 21.568115700563784 5.843250940297706 -0.33082706668310446
O 2.2916283053065665 20.57989081180615 8.84989018568084 0.6301632474146972
H 2.244130825652504 20.527770951707794 9.850583303197016 -0.3216122569161409
H 2.305336028696457 21.539339371506706 8.558835550941883 -0.30915572119257684
O 20.640507280571313 21.471419602338003 14.979712086591238 0.652445914001885
H 19.843355326766314 0.2432309845698276 14.854132734545743 -0.3258860545987753
H 20.539031988548004 20.982242729998536 15.835799172045908 -0.3366292679210041
O 1.8297401131520097 19.121042880475905 17.40161572916321 0.6748163424292244
H 1.4136551743807488 18.550379988221117 16.696943193398 -0.34534344389309435
H 1.1690268230011323 19.809749088536744 17.72684550651623 -0.29963271309498474
O 21.691180483987704 20.748739745570298 12.309714806889076 0.6335878438986677
H 21.453020247069198 21.121354924547717 13.21448204104376 -0.3340610163636559
H 21.395075733967264 19.798194180664357 12.247724523935736 -0.33378920219861974
O 21.691819637419353 19.249502748974635 6.179985361905008 0.6559675100976179
H 21.582296558616285 20.195677779990696 6.508329222994695 -0.3594816035247863
H 21.63418419398959 18.62666674062977 6.95768399464857 -0.307611748922504
O 21.251775286928556 0.052392347217308045 7.201239983918778 0.7099609594450618
H 20.461956761378186 0.5554360987724765 6.8616564964554945 -0.36532108000599417
H 21.161006551816175 21.72178837543369 8.180235181508447 -0.34604937817149084
O 19.369999803888586 0.2425609343401204 0.3278412524410207 0.6289540897583521
H 18.45452354647452 21.791639418886177 0.038508371813487055 -0.30307164981475865
H 19.67800379525516 1.0123738293194657 21.59928024490125 -0.3398720230383514
O 19.341788846137728 20.281359098011514 3.1796873809783346 0.6448535850471195
H 19.16074885356086 21.109890178676867 2.6446577145129995 -0.34814909755810497
H 20.2385670201672 19.91606322503399 2.9637467712928403 -0.31792715462071963
O 1.0711504347621592 1.0310140475473533 5.201483221912033 0.6533989914982978
H 1.369536258568829 0.3050151506635018 4.574782804079287 -0.30567899498854967
H 0.6823040891100199 0.6265226588575914 6.030062849999449 -0.33274449948230966
O 2.1820772587045845 19.26038886198734 1.909122004407284 0.6689037872836101
H 1.3714250673444273 19.27068053009868 2.4938477458398003 -0.2852414412027421
H 2.212696602079781 20.091893357068525 1.3616345172633364 -0.37856208532810454
O 21.590228962922208 18.971455658413586 20.329371506707258 0.6837224350259001
H 0.24777266202215753 19.80914054031609 20.12100766136861 -0.3328570325912046
H 0.38610546817650737 18.325824690762754 20.780911364300813 -0.35454659191889515
O 2.062131397786569 21.182367497997802 0.07097664179693028 0.6895421926888883
H 2.3287299518310567 20.592805374438875 21.1580254269849 -0.3098083453126407
H 2.065636256362626 0.3007328954219477 21.582970457667436 -0.37279407202714876
O 19.36978367979029 0.24057767522639442 18.953367014414386 0.6263918541768945
H 18.456988910476998 21.793317354957814 18.660491976751455 -0.32304897740762983
H 19.685715416652396 1.0108058837540066 18.38729430862837 -0.3040921706213884
1032

O 10.726981792498574 10.734186740207104 10.914198048534749 0.6847960066995027
H 10.30049285112511 11.592522561335787 10.92024235244843 -0.36268082156650705
H 11.712300652012534 10.417465013436 10.914239447960776 -0.3228053049655484
O 2.2480258238928825 2.7497391005711873 9.960817356057538 0.6921217258006607
H 2.6027424715392193 2.5886915790386915 10.87781736863854 -0.3619171290882238
H 1.3765195151089953 2.2907425251335662 9.841213669411069 -0.33233039681124665
O 5.6904597240120935 12.752086952150174 11.650116403474646 0.6617408699169864
H 4.756554899227312 12.674844039190548 11.298039857634997 -0.33131259141636626
H 5.806568968118688 13.63015063649978 12.088689882493936 -0.3399056184020899
O 15.548599008417971 15.110366487284626 7.030398246805846 0.6762919179936153
H 14.996268528775907 14.967661160365594 7.826471312079115 -0.3549582337708199
H 14.973373495584967 15.209772894571994 6.234400819271557 -0.3570850620660374
O 17.43277000238101 6.1750659440288755 8.559062156323677 0.656246518643842
H 17.757906819977247 7.123280262700691 8.574134031508473 -0.33222542622525386
H 17.94403727507816 5.644578703261555 9.219320259271608 -0.31489314014223513
O 11.352628313187362 7.032084947910971 7.172115518079087 0.7120117189823194
H 11.91703214711771 7.790710993456964 6.9193501381113 -0.3498766250905877
H 10.761398224097169 7.2843502016171415 7.941940184899462 -0.34573277143464853
O 17.54899475664905 6.0694126866684055 2.309933963739911 0.6724678589331408
H 17.427140729184913 5.925708237872106 1.3162781265287502 -0.32211779178808875
H 17.246350317280108 5.266757588305014 2.7909313187669142 -0.3510505829286359
O 7.678814722548034 11.441683722945383 10.229781503222645 0.7025416907321915
H 6.900165744212521 11.604132341266736 10.829732839873909 -0.3446125810165761
H 8.020392236912182 12.322418209615522 9.882759883867378 -0.35518310766066474
O 8.499274473086935 7.983090845537918 18.229452460469652 0.6765132218280314
H 8.470674765971312 8.74462421741975 18.882119896978498 -0.33914601274934997
H 8.715531352413327 8.344246915773235 17.33182459952403 -0.33550054257898754
O 6.851048924735027 10.119476145784684 6.648470711753195 0.7184974521903333
H 7.548805880710466 9.967188603903761 7.359146080798733 -0.3552098607196368
H 6.106885152554299 10.677993066377516 7.041679170911144 -0.3331198635159015
O 6.860886026963921 11.608947231615192 18.03271057081758 0.7283897890614748
H 7.4480408402757226 12.40174007931235 18.170505822915246 -0.34876027848737523
H 6.0174922880107236 11.91863300367149 17.626880762368035 -0.3561299967083422
O 3.348577598329309 14.350661241405426 10.609026693027566 0.7091354819001161
H 2.571923456543133 14.038304206229833 10.089984511976587 -0.3358981973361638
H 3.9178236151315304 14.943919976694053 10.036291583262198 -0.35224222330341415
O 14.605304776523594 15.050961424748843 13.391677423931938 0.6596692382428024
H 14.843717199121361 15.998004523179414 13.654759035490482 -0.3548333161080799
H 14.456365257107263 14.517653447970527 14.202512690261784 -0.3365968010918168
O 4.37845542754735 3.920699707052097 14.990301055737703 0.7152761236240295
H 5.1955753078383315 3.344471451175857 15.068715238735761 -0.35877219767847457
H 3.5738016048773718 3.350206579682796 15.027677362381864 -0.3346129645950384
O 2.3073495985881642 17.130951104513997 4.829905084139234 0.7087484560012562
H 2.6494029539503727 17.89691069401989 5.35809455134223 -0.3532585640502758
H 2.7452744713992874 17.1301015289654 3.93863431758532 -0.3372649596634152
O 11.27053497298235 13.411396982905513 16.90180802606776 0.6948498309375877
H 11.73617745698481 13.414626728495941 17.781452174309976 -0.33126071888550435
H 10.785769279468585 12.546819524189257 16.792203315720453 -0.36075245630626884
O 2.3046648868426076 14.342383570274322 5.379078551627465 0.7013252807150216
H 2.047606684786398 15.307758949541084 5.388069030762013 -0.34520846395416716
H 1.60996066895951 13.798814940676744 5.821721930233061 -0.3537847231012483
O 2.4014803376793643 10.910089769140585 8.858205812893365 0.6896950512000322
H 2.5250690692201117 10.07279779724468 9.362960540899447 -0.32373916043805284
H 1.85744200240887 11.538416222759462 9.41605737128124 -0.346221738384927
O 6.199815787017707 17.8641603532996 14.389032953125257 0.7120205881711117
H 5.272607414046705 17.70271997061892 14.744272367819114 -0.3454707220861437
H 6.482967656237609 18.784722430249975 14.657796607202037 -0.34079531684760145
O 6.058322604189993 9.640601123326222 1.2309780523291625 0.6817999084413646
H 6.136829847903407 10.479475742160606 0.6893022591008908 -0.3135589100939673
H 6.516908479182349 9.768961481018943 2.095043769755946 -0.3683859406184743
O 15.937496989444142 1.1416268964256375 14.799880920115559 0.6723689032421758
H 15.757641299200923 1.8071485096799962 14.079249873340544 -0.3158447576576102
H 15.900593556026948 1.5907888551397853 15.693468967381138 -0.3469042520535046
O 18.424796435555912 17.670528972694836 3.5916804022308666 0.6852020161838768
H 18.95205253705309 17.385717317218045 4.382289640062851 -0.3549332478507393
H 18.72426542011345 18.56861239301253 3.302974352993597 -0.32272615551737227
O 16.89105436484495 9.21960199222295 6.119355004075522 0.6988073014982801
H 17.82965202194322 8.92664037520326 6.19240967677503 -0.32035167029392053
H 16.817799878629515 9.863819581438737 5.362356034844294 -0.343417215894114
O 16.41019452719285 11.078950281949714 4.317441200239472 0.6826840787015369
H 17.267284242321146 11.112786282780071 3.806102735776467 -0.3451449946225267
H 16.548892279510667 11.545250288915906 5.193705072230227 -0.36392461544855825
O 1.130194960109889 7.374147379272728 15.966303087664949 0.6840174602837132
H 2.0132032788788066 7.237785319291713 16.415405173703693 -0.3583537525543593
H 1.0027511433804988 8.335115421090249 15.758856753885008 -0.33813050050558535
O 6.130006625125394 13.653694552113144 7.258897336247121 0.7561563377325893
H 5.63197823733477 12.795986603807322 7.341461101284947 -0.37627741527202596
H 5.892410883729106 14.075843846085117 6.396773725827369 -0.35895069245083544
O 12.92876656776095 12.281187356872513 14.230998833239838 0.7462089690792588
H 13.312315845352797 11.557331222595161 13.648536876644899 -0.35196474930227595
H 13.449487174726833 12.326609072845146 15.080656912161446 -0.3603053395932948
O 8.085219355710905 0.04481426289209853 5.019246133782653 0.7524831262793068
H 8.50988837078617 0.9650422874148066 4.927577370947002 -0.33578636187154676
H 7.103502815662653 0.12317724927792903 5.085957537308475 -0.3635922554128964
O 15.244967973105648 9.990639333516036 1.899323279774426 0.6062776670591736
H 14.63398402097676 9.225267306546026 2.023718145665025 -0.29220433190355066
H 15.725037618741371 10.178532783807576 2.74874381206029 -0.33193475661626537
O 11.867507314404657 17.92032473611566 16.160794979758013 0.693237992622965
H 12.109723606961705 18.51444043914362 15.396551533851307 -0.3060723878889624
H 11.944539322687513 16.969016973522372 15.847526015937651 -0.36395806061265057
O 3.172660578314536 2.5083501837456543 18.011103985190907 0.6867250612039548
H 3.8766719379992813 3.2251535523546764 18.076710258457737 -0.33047023869536285
H 2.293920808936891 2.9061670778549518 18.293657337514755 -0.3483731003958609
O 14.663039499915092 14.168953620399108 9.531327762022272 0.7336975375706345
H 14.080991176544826 14.22424453174197 10.341514843822479 -0.34454291435028883
H 14.520878756717188 13.291472685751623 9.079632799388074 -0.35808025205433436
O 16.670322921469964 17.14300937727385 5.718622045392664 0.7046567822467775
H 16.265106390570434 16.917962372807793 4.833060550189199 -0.33905445154312774
H 16.487205906390926 16.41527263803516 6.3848004898187005 -0.33897508467760273
O 5.979805216494777 7.2897250178173225 2.702575611840212 0.6609428321471231
H 6.2210591495780685 7.972364687058045 2.0232225769890477 -0.34937231247816625
H 5.196775020316009 7.6151745928956664 3.24319800476671 -0.3355988083529907
O 12.806563954215106 3.450661248609515 9.44206103402506 0.7112160250786896
H 11.947585357197063 2.9558175252990555 9.305134139312301 -0.3408707714924044
H 13.429164056640374 2.9099656048593623 9.995597354201996 -0.3508913981200794
O 15.76382207570595 16.61845694465905 3.0702104751180164 0.6978323045839421
H 16.65277250258726 17.081125587719253 3.09478680044896 -0.34834477078547954
H 15.550271028358937 16.38771986935044 2.1363090542927945 -0.3522091254764149
O 8.069567272974036 6.047444293431951 14.650274218856758 0.7491763000519978
H 7.588082794709005 6.006282145836639 15.543356541758797 -0.35511137976553775
H 7.550507830475437 5.515418643257771 13.99440391417385 -0.35566494754989364
O 13.939869274892818 4.68685869981177 16.741562608326785 0.6621541063544676
H 13.738954499630108 5.122990752563487 17.631417138070233 -0.3522124496395155
H 14.718014632967318 4.062536235372801 16.83736729550321 -0.3328880226326596
O 9.732971514493949 8.90272248787423 15.721080155127545 0.7451262912564616
H 10.197371350649318 8.046980105799616 15.436805503389436 -0.36948276853465367
H 9.178905359234577 9.25001293499429 14.975134058658377 -0.34475180452811816
O 9.909804062117297 4.100793299343877 12.417299830462742 0.6687841912858659
H 9.149300462855358 4.44541573782554 12.960554382243131 -0.33649544569790013
H 9.560567097710344 3.596645803124374 11.621648483670171 -0.3374673358376824
O 10.410401504056475 7.008822829992549 4.289801593019388 0.6948276160784399
H 10.679846691200805 6.967804615494835 5.246893269115463 -0.3377868365570571
H 9.567485879337859 6.494463153471908 4.154304014247736 -0.3638869529133337
O 0.7609052395501937 8.108582867080413 7.891125715253466 0.6310546437146343
H 1.7363929142715733 7.987770089705916 7.984643963563633 -0.3243107039303573
H 0.5238746190094011 9.039830363243532 8.092318128905367 -0.3042923534736137
O 8.651140992633009 3.482025501392874 1.9479681295476026 0.678820078723966
H 9.234820225117687 4.105911240273239 1.461785500786588 -0.3449601293117236
H 8.835071564698932 2.552599710536353 1.6662365790578961 -0.3364074715372104
O 17.191789156675295 5.849724560859554 18.308495452976146 0.6839745123694305
H 16.91740369213345 6.748899968566026 17.951892131700056 -0.3704919756982594
H 17.16581377620407 5.171032553250122 17.582402070686186 -0.3299859615570443
O 13.61866241323745 11.442990867815489 5.447460423659395 0.6839459749012029
H 14.43809023505073 11.150341647392104 4.977563509105248 -0.32961631988186835
H 13.139792507216832 12.116012993897208 4.87695969074396 -0.3548101118681103
O 5.4990192398223225 1.9575489550582301 8.848887798264677 0.6965372264935992
H 5.451664289476986 1.9072946234267385 9.850169283973317 -0.33605163420017004
H 5.523344274116165 2.928113528777159 8.552735758111625 -0.3282185561342069
O 10.081197379496645 14.5559307849078 4.770152629548796 0.6837061197598686
H 9.612799404405983 15.284217937985884 4.251181138420734 -0.3387038026094906
H 10.058847692045475 14.767012818720334 5.74590613322881 -0.3296152349380903
O 3.5133170102137377 18.00928606740631 8.530462710554987 0.6766037396342597
H 3.999744313784778 17.143139781019695 8.585768763302378 -0.3469946329224769
H 4.15815258484855 18.79026670531586 8.487413003852026 -0.3581415456712215
O 17.952149271339728 10.660444529164286 8.72883588906289 0.7074279223664295
H 17.32600142502291 10.494439158090286 7.964470139074766 -0.3326549615621168
H 17.436705642135177 10.784059392522165 9.575912092891485 -0.3481550327659111
O 12.270307919745273 15.501326208163311 15.059878398160214 0.6582168160274442
H 12.336719283432561 14.739106947367661 15.712744872553285 -0.34628182240714933
H 11.751227120644643 15.235034791823818 14.260416270925374 -0.3341148624067911
O 3.208403161037814 9.431300123074099 2.416459638779824 0.6411530105869776
H 4.018211646624813 9.828260180723104 1.9962293198982377 -0.3309902314500167
H 2.9268090876343074 8.60487658126734 1.9317641600494504 -0.3123507881616434
O 14.586150747239232 7.347881684352996 7.27948709205537 0.6514673585255482
H 14.527322264931817 6.700294025488051 8.029940917046076 -0.34942266972532376
H 15.38272332820212 7.944180023883979 7.412657748593403 -0.3259792240531246
O 4.613914800736716 12.658932518608223 17.27044879483297 0.7132982062027722
H 4.109336614272036 12.671663038700208 16.420626894342323 -0.38577833810973816
H 3.9881919263497756 12.474765928386077 18.03067870621808 -0.33135001001749287
O 11.108121961530967 17.75908950825408 2.3724403136011416 0.7020311545037847
H 10.491345172282665 17.130143938388553 2.8605661265250983 -0.35320054904854303
H 11.423636354209998 17.331644429677883 1.5154943265258503 -0.33467389680279847
O 2.018111948379211 2.850405444564977 14.97742243128921 0.6122143166105367
H 1.2211786013734247 3.43337736636772 14.857919329974122 -0.3122195818315563
H 1.909931607152419 2.350693899619969 15.842181864078178 -0.3361870793009959
O 16.318691384005252 13.77340753471174 0.8118212067955568 0.7095437610241699
H 16.02239163656231 14.71117033110074 0.7193317363677083 -0.3325153423666143
H 15.559781415667254 13.131049504388253 0.6894960879794818 -0.3568772486274707
O 4.642681631958592 17.431192201015335 3.2276184646561923 0.6667176502537036
H 4.976227447285962 17.798167252306303 4.089580003426547 -0.3431463313235683
H 5.393539926657121 17.35639961549616 2.5848142539667713 -0.3068190142727919
O 14.002974215197137 1.0711198908049362 4.259200385649094 0.6409178772333872
H 13.75614676228676 0.7119903746724857 3.358162589695969 -0.34523168552532824
H 14.985863126861057 1.2326427590789777 4.291328412837198 -0.28411761298813687
O 2.491993040608832 17.85287016337619 12.41017489681276 0.6578569312978502
H 3.058221852619612 17.20602213880247 12.903561336403149 -0.33593944523971153
H 2.323520894157688 17.516895818612383 11.494116090667646 -0.3272461159058653
O 9.402648631892687 16.97945999925483 9.037295672516196 0.6799313217848226
H 10.201121660486068 16.413910627955136 9.252452650347422 -0.3320834467096122
H 8.895122679429546 16.574939748815318 8.274073286013374 -0.36610345023254787
O 3.821341140799719 7.000870402913687 4.800518994735795 0.6851473552608764
H 4.279212327554164 6.1031900655147995 4.773785963269013 -0.35881331921271087
H 2.879383813843829 6.903413768065147 5.127370324201347 -0.3363613501818097
O 15.46916531599651 2.2211591513819595 17.290076680601633 0.6880657339672291
H 15.419451559594268 2.5879608131319123 18.21917065402242 -0.3736507169796216
H 14.749897383630685 1.535862638339947 17.168698152576326 -0.32583863327143725
O 6.14193318460347 1.221071399591723 1.1705065820375855 0.6468973661618911
H 7.122662400700092 0.999484900907489 1.240508928469105 -0.33610430746763165
H 5.829745561647112 1.0517274320165757 0.23583971123875822 -0.32731028781441984
O 7.812235693571805 2.641590097442272 17.490337706488745 0.6529885218360727
H 8.46877155108402 2.0353731815561646 17.913669028775946 -0.32596136890688976
H 7.073715126660026 2.846003399255532 18.140205597430672 -0.3277618269952889
O 8.88182257522582 15.144870912163794 11.950236730452907 0.6963019460365301
H 8.648864734237035 14.89651995075129 11.017927903058576 -0.33914647848027657
H 9.500164820958076 14.454778018723376 12.342721782477362 -0.35022653477888666
O 13.510607616280607 5.905581197772878 14.328957336041375 0.7081873520071582
H 13.791661678540137 5.470273961960943 15.18763294844559 -0.34600333425818974
H 13.769771632135493 6.841954313923363 14.34237925356826 -0.3617863351023154
O 8.029644976641105 14.021414087013069 9.237325563504546 0.6955487113708578
H 8.933841526088937 14.15635855280293 8.839471035718018 -0.34101951885053716
H 7.329351161588929 14.040597629694874 8.537180827617735 -0.3527557732278852
O 9.22182135599237 5.031290781100941 8.990311679136768 0.7205444426533196
H 8.980398519426208 4.943362919281567 8.029558384758998 -0.3783665526383905
H 9.705220175483591 4.22264626764004 9.293929018404498 -0.33438362523343157
O 5.392467889562411 0.6400811867489407 5.118046040020998 0.7316898379845664
H 4.569498696108914 0.6521087716196372 5.696626446681719 -0.3438731381826938
H 5.42164720997591 1.4699271767275148 4.561194121230919 -0.34015380524338146
O 14.337129413673374 11.883958393479807 0.40910674951302434 0.7191493569137304
H 14.654304556298078 11.117241800709584 0.965878825855347 -0.38106015993441444
H 13.444819055953431 12.12831399381197 0.7046953184246941 -0.31841022423717713
O 9.354647269921685 2.3569536074310378 4.798453365048143 0.6409715287706481
H 8.877405530969108 2.76011953201345 4.012656788048128 -0.3397302809002204
H 10.339278361786391 2.347582777205829 4.6076176291013535 -0.3471720181227803
O 10.76059904874606 6.831456203504517 14.63982046059137 0.6539032200047252
H 9.96366640384308 6.227271724196534 14.669757971422747 -0.3599815703566007
H 11.57920483937155 6.291429111034531 14.398345622005321 -0.3434554966981026
O 12.27102610805426 15.70392965465169 7.929670746052982 0.6594855968256859
H 12.49050435552688 16.4520555219058 7.287037930962531 -0.3398335817793332
H 12.959521051679285 15.700478683143189 8.65315613737268 -0.3213298517534926
O 4.590966101599525 11.51758794580006 7.414954537116351 0.7312392786569823
H 3.8965691148055592 11.242903690328127 8.060969671240944 -0.36079272680452046
H 4.319138203680492 11.245111253612128 6.490507200125131 -0.3698890807155285
O 12.71468878328979 17.97235144903465 5.909639129090898 0.7012963701853838
H 13.146236340432294 18.61856873456195 5.283692239704235 -0.35297280909850537
H 12.208873119866638 18.479046768742894 6.616211062464358 -0.33928571061196977
O 10.321114150769205 5.493715291301329 0.1618294017300041 0.6520637762539163
H 9.908741793962257 6.316802290733271 21.614873233028135 -0.32952757974713565
H 10.944832184333455 5.756447610061297 0.8908693192122491 -0.3204660109665771
O 5.613378350045281 2.220629744971738 11.472284763275502 0.6586626682494217
H 5.986712159014873 1.3700766972354055 11.83569529289505 -0.33163507005091786
H 4.727693643880896 2.4208297833659955 11.914065562102227 -0.34796433360384105
O 8.661279284213657 4.537824747551177 6.423136448438918 0.6683881127201952
H 8.343015260802073 5.261338055642376 5.804748723162991 -0.3322973335195718
H 8.897544448773496 3.738168936248427 5.894764448564205 -0.3457909588897419
O 10.165437863979882 0.391831417349966 7.53153747547679 0.6467509806862033
H 9.454588256339921 0.4326281086171739 6.845463325165654 -0.3520234749405362
H 9.928719750176796 21.54088517892184 8.218705948623414 -0.3010582474142146
O 14.289627280530198 11.734489101529274 8.671697900441076 0.659076276028264
H 13.732454638529342 10.896597038188526 8.61711845104335 -0.3429556065177982
H 14.542282899596087 12.026177803234585 7.75107638905443 -0.3497755745047699
O 14.661936976708239 5.898349344768597 9.919349256084553 0.6646860919326141
H 14.355979109594417 4.94215821688952 9.980481966014496 -0.3272414805367364
H 15.393634130480052 6.062339088983479 10.581480781794031 -0.33157547211218374
O 18.572623181129753 8.33113439565087 3.7666563872259835 0.6749152992051073
H 18.99383681424168 7.691921752840248 4.402019857873532 -0.35449238246777703
H 18.19045359229055 7.819528828403182 2.997214404038605 -0.32748919934616116
O 4.882621049176624 13.848744378802492 1.7414454169308549 0.6959083137665782
H 4.013575427180453 13.719786835872972 2.205863125391431 -0.366703204690093
H 4.71834949564291 14.109953782430361 0.7733016370346592 -0.30112622315424353
O 16.64302739471455 12.799538295850594 6.568512671904389 0.7241887751920597
H 17.619377724833434 12.875698816508223 6.711982874505312 -0.34130473106592274
H 16.188851747016418 13.629955276323496 6.875820674166627 -0.3473970607632205
O 13.90087811540581 5.747693389832712 0.7743806624435844 0.7410015712779527
H 13.37445515757983 5.5351015217148305 1.5715476746686219 -0.3629110599966565
H 14.810234587999437 5.341079386161083 0.8718021986612643 -0.35981510427554964
O 5.2704070378507195 2.560965691534889 3.280914584919577 0.7095068064631116
H 5.533915079843686 1.9766017826372322 2.5312520163105456 -0.3659695481851537
H 5.261576787927389 3.5149562516346378 2.965244159474461 -0.3493775373206879
O 17.540965532705368 12.231369554822495 15.877813752623101 0.679974817135923
H 18.465081302860714 11.843875290263142 15.756223013089524 -0.33443434736323185
H 17.61924103315198 13.206575079917158 16.114543383951638 -0.34839486700576694
O 10.637383475965141 13.471206165402224 13.401926444615128 0.7433305501723471
H 9.848765647897713 13.224469556429995 13.964354262554814 -0.35536882559810423
H 11.47930147194845 13.202221935333727 13.886197830186859 -0.350863452781334
O 15.922086615887654 16.28830481087412 16.24884471027354 0.727163948338795
H 16.191409312598097 16.632850796444757 15.351854699994423 -0.3645081720440845
H 16.70482638293112 15.899678599557925 16.719307731392462 -0.3294030288014064
O 16.378363784737445 10.991541919139737 10.786367259492783 0.6682463788404185
H 16.424851930113785 11.81191218504995 11.371983416810572 -0.36611402137316107
H 15.510203061113872 11.009699303641533 10.287448692798437 -0.3409975195172542
O 9.152587623595451 0.8876441886519614 14.021448735040478 0.6817510276181
H 9.402364275038682 0.6800910639705179 13.084662446144092 -0.33356821143697335
H 9.872280424910691 1.448639594248321 14.449208693156669 -0.319939201823099
O 9.79967092689726 11.16027174433337 17.18984204481839 0.6861267754180416
H 8.79986943507999 11.212106688103946 17.279059960807146 -0.3425026142915536
H 10.02565449276461 10.3695259697359 16.628850869683923 -0.35534116260805293
O 7.052940339478579 10.501066364032877 3.682953393685433 0.7297036553135676
H 6.910223645906837 10.575096404858186 4.672601219875719 -0.34419930577010127
H 7.88370773983672 9.994669283141427 3.5075773624603386 -0.37154274397360865
O 4.095792550084305 8.128215354539764 12.510690548135285 0.7054491389020754
H 4.956949679961169 8.255372013990923 13.026210699656795 -0.3380096646486853
H 3.6903530791953463 7.269381237661776 12.774444767530456 -0.34279469461178336
O 12.741712660599292 3.859649157698267 12.621401155175196 0.7184861403733205
H 12.958964136767937 4.604878803010902 13.27841229630742 -0.36161049179715576
H 11.854910642799037 4.032379635550679 12.195212770802856 -0.3625933084354739
O 0.638572062032254 15.639150939368815 13.311211578225091 0.6346235584843498
H 0.18830416081760118 16.462328432507558 12.962058032630742 -0.29386165354403104
H 1.622900233076007 15.840656674360755 13.391753174727999 -0.3391387144778728
O 3.669454068917524 11.006950663134036 5.009738193387538 0.6494804938877241
H 3.6030118082109874 11.8313931735924 4.450709353324655 -0.33382130132452204
H 3.704165739363029 10.19953615837258 4.404786251161217 -0.3487137298163556
O 5.661101492792828 5.370602733578386 8.648714059231208 0.679481297326566
H 5.795207131065921 6.026920799707576 7.913687654640833 -0.357010912986675
H 6.114548771828815 5.72935263451903 9.476039770144792 -0.32367251411932896
O 12.522286692464885 13.474948718129522 3.8818587214718216 0.6790678718652456
H 13.004041937554277 14.256812782983125 4.2692228035587565 -0.3493517254280367
H 11.56682497622022 13.513877908597783 4.210063680987204 -0.3429024667760958
O 12.720969092467175 14.453273776243496 11.422720224190176 0.6643537897616731
H 13.196046536137848 14.572125358686812 12.289358231111573 -0.34439863155372363
H 12.07294137146095 13.712513571297203 11.498634967731217 -0.3393923294980147
O 15.822998853884227 6.3919476250667415 4.717541567326048 0.6591985024724343
H 15.513369105040452 7.002335977920711 5.450820837653309 -0.3457208081408074
H 16.321791155460573 6.908767778971859 4.040779811017476 -0.3116004705389338
O 3.538186379053037 15.101876410344042 13.293557856362654 0.7109943856577026
H 3.3206590578831547 14.664362184015236 12.428031044892352 -0.35721517897441746
H 4.49485303447267 15.361323837663775 13.321766939691551 -0.35167710624788806
O 4.023378822123364 7.512781120490966 15.98605487234444 0.6604787063687159
H 4.7011907612903086 8.049758073323787 15.514889099396186 -0.36089011588850084
H 4.436226011835281 6.631504680573855 16.24914397192809 -0.33808686927617304
O 15.869162906684618 7.788748214490947 16.702810855799285 0.7325509482721513
H 14.959268991766681 8.168745430776516 16.647162254867087 -0.33468811295368284
H 16.468018011642894 8.267171849907955 16.040714035756253 -0.3621927559481699
O 10.13385103802676 1.047588946300067 17.700726636621145 0.6451979500819487
H 10.194080051637073 1.898186763438629 17.183259738071435 -0.34416180007657327
H 10.43731294883726 0.29579833093817354 17.135865377584196 -0.3085519284711933
O 5.039733047192704 0.49800551686597416 17.400718438530742 0.6855960713831362
H 4.624000745988829 21.762912244857898 16.701761130254802 -0.32931784984927925
H 4.374714949830857 1.1839300059282198 17.729949370584777 -0.34623749055086084
O 5.730487334625195 8.697686184866681 10.29084339813644 0.6644306581318888
H 6.168312695557046 9.589702152830785 10.196303906159857 -0.3287012967278593
H 5.093393708396477 8.689046224714744 11.06450820119797 -0.3459681000468403
O 13.604016362649398 8.61692407520098 10.449192639814045 0.6799759802601439
H 12.841340715260504 8.637806228077741 9.786976970114605 -0.34185226654824996
H 13.971872928074662 7.720168918633441 10.546191174846443 -0.3530905170634192
O 12.092734111516231 5.252507168305234 2.748630504262812 0.7163486084842301
H 12.221843667550429 4.415747869999273 3.2827257972225827 -0.3579114211322737
H 11.80641309311804 5.979690888671802 3.3453001838144703 -0.3400933105449695
O 3.0692670892663827 2.1279238039621364 12.31031966402968 0.6334493997639363
H 2.834691267259912 2.5081724178862275 13.211605807999444 -0.34866174557727625
H 2.767748659453308 1.1768759674965548 12.249175930890154 -0.3400003250692838
O 7.319117286237462 6.339308127703487 10.641067096259755 0.682636828782706
H 7.916933830871939 6.078538508564761 9.884598488262434 -0.3560438421336143
H 7.045558109982963 7.288957285492703 10.529921378777413 -0.3469872087346778
O 17.282839422830722 9.354906672736771 18.541964521186944 0.6742306082908458
H 16.817495754527588 9.280693777488699 17.65456269364853 -0.32621463524175176
H 16.663363827536607 9.79484011548008 19.19114167064694 -0.3449352690791072
O 3.0700386307336074 0.6302995481721675 6.1783168930768655 0.6073416961877722
H 2.9424120001317635 1.5500936133041592 6.497013935344362 -0.3539709129420465
H 3.0102222206203404 0.022707182938472164 6.9480145684908265 -0.28263741455470415
O 16.22100330762421 3.6654889064325484 3.741015065815921 0.6715493609449661
H 16.248341363331015 2.9100554114108754 4.378561145269016 -0.33847376648278504
H 15.740620199926646 4.439336278852987 4.129280606143631 -0.3447856962235758
O 10.234302806023466 7.6575923506378984 9.659821105384196 0.6901711946979319
H 10.386162857928538 7.86849094962088 10.617830190391548 -0.35340554637278176
H 9.938898581446303 6.7061776078207345 9.5838878287122 -0.3442766074081357
O 9.802007286453822 15.73168691016015 17.002487183786602 0.7315179258747477
H 9.598264847940047 16.169742533812155 16.123793566988834 -0.3610856858025291
H 10.178452498832442 14.831629974764422 16.826854374062993 -0.3357651860907067
O 18.588788971032955 15.179564971676502 16.052562868345813 0.6909428600804386
H 18.723474832064404 15.459708552200194 15.09105695217594 -0.3265424296087849
H 19.419985189914787 15.407792598664363 16.57350586342009 -0.33923534066158756
O 3.50125021060138 8.977024960266613 18.04268266376076 0.7131112569573546
H 4.261463237117963 9.4200885055987 18.522675081114375 -0.3272119706846348
H 3.858485108063585 8.509529952070709 17.22379947355121 -0.3538752802271271
O 15.401400731786804 2.7405250690748275 1.2518315130642763 0.7026747660694195
H 14.791817514296264 1.97567366281407 1.4795510282060738 -0.32919302465674705
H 15.61716215645366 3.2588709135254788 2.0749526624152983 -0.3477221607045714
O 13.034259053254761 8.38039023346011 0.42213497240540365 0.6601123559861231
H 13.377841941958346 7.447520996373741 0.5687800733642969 -0.35737155730909387
H 13.221407934633104 8.650833178795583 21.29899237132822 -0.3248364183554644
O 10.683202556212407 13.328809798644135 8.4935135418096 0.7028491332251932
H 10.752589949753963 12.496386254505875 7.934174150592315 -0.3561310750162854
H 11.29939338159348 14.024213372353417 8.13473876149408 -0.32797652429168855
O 3.189079688172519 8.098025252399388 9.49414601207956 0.6992492452144594
H 4.10322869708618 8.4554516539993 9.532988759055085 -0.3476083986674008
H 3.126025890983902 7.24382649788494 10.004113799980576 -0.34147828102563826
O 3.3875716869914863 5.090222111076133 10.060150340331681 0.7509511405893701
H 2.8800387179445384 4.263831242169272 9.871427077445164 -0.34836284801802087
H 4.161991040959186 5.1384492748421255 9.419716133592363 -0.35907229269802166
O 11.381949441667286 3.8027841830183964 16.779846762924716 0.7088263069301579
H 10.941935183672745 4.42282756264631 17.413661910338227 -0.3579571330495872
H 12.301699861059229 4.116151204071913 16.625621229887503 -0.3372730716534691
O 11.599646616804653 2.066502560776423 14.771110029098748 0.7083475732355273
H 11.595132058174048 2.7013140214023386 15.54404822685967 -0.3632448702163886
H 11.874408727594904 2.550985772684442 13.955238842625498 -0.32681213573128165
O 0.8832954649227934 18.0113281621292 9.269539616133052 0.6845848338810532
H 0.45873597351072526 17.16713261013226 9.019665820926843 -0.3164969077130687
H 1.8028794106465968 18.052443953431464 8.925921183866997 -0.35116714341271715
O 5.041406865757189 15.680029954423478 9.098382345953901 0.7032982965863273
H 5.691055621272741 16.416098426126204 9.192748996559196 -0.366664268367097
H 5.470018408137154 14.87484613787368 8.685781772071755 -0.35411317380607754
O 10.021702683977999 7.957099618376003 12.381361047690195 0.6826691585614606
H 10.432939978860638 7.642392510434165 13.244365119196832 -0.3471307290124146
H 9.066332713580781 7.69207700777581 12.35968773645827 -0.31685001634993404
O 1.8896627570278297 5.198717632176545 17.220552265070154 0.670995232558333
H 2.4713297465670476 4.809217983208323 16.521714059710114 -0.3304528313960986
H 1.3084615438428826 5.90343735156864 16.821097362379792 -0.34434018283059253
O 13.688831388667314 9.501065493353098 16.600750111839535 0.6828195669310464
H 14.085793404063002 10.39926523247415 16.794398151282685 -0.3444687905606608
H 13.796777926196368 9.294610317063823 15.645283860534992 -0.3464713220945479
O 8.148442634046852 5.722598574499408 3.2504959210662085 0.7312027815824935
H 8.218560080894108 4.828837684774067 2.7870843406740073 -0.35660751125994894
H 7.215928928870235 6.05942154291791 3.1764964103292277 -0.35032978818702687
O 16.570448761917973 6.041506424611101 12.062905134933654 0.6905396960140626
H 16.201226517846866 5.363976241536591 12.687526054800788 -0.3341244251419815
H 17.38428930299932 5.675876296171942 11.628883874290688 -0.3598139802753417
O 2.52001052989978 15.640706015807941 17.44272490979745 0.6927443999143943
H 2.230356761982402 16.21611759004856 18.20237740173624 -0.32561945417458193
H 2.4470766871420646 14.673589046715117 17.69822065961066 -0.3459426490236197
O 6.706198338708562 4.636605971995486 12.692355863977884 0.7067252978754954
H 6.373676007051379 3.7536956805717634 12.384423200989705 -0.3424257901538733
H 6.980726896618384 5.166407126092509 11.892113220038354 -0.3497846128098284
O 9.301696874679205 16.783565376360162 14.646936888682285 0.6578766372455789
H 9.0812570028833 16.594732523110327 13.701829913831336 -0.34419613523257264
H 9.608446109421159 17.714193273284533 14.761005690586968 -0.33656213055238726
O 4.727332793089364 5.002435116152422 1.9108311932603363 0.6496288589153245
H 5.341965568961897 5.794798707280687 1.9461149673241491 -0.3331689238075277
H 3.7871544855449804 5.309530843035873 1.9653822276250348 -0.30514895685007826
O 1.5918450625577083 11.36807243168537 14.66179939076143 0.5588478695965824
H 1.820285548903148 10.769339562106182 15.41550441033342 -0.31039670493551075
H 1.6908412713025491 10.878949583179736 13.796733941990581 -0.28656936577944525
O 13.470457075445166 10.59131746990348 12.344063754234543 0.6681266681822349
H 13.701421649490047 9.974256621909195 11.60660471884049 -0.3557526375111395
H 12.583212962478694 10.996187258448169 12.152647250350162 -0.3304402833582558
O 13.020370798370484 8.549191923428998 3.0917587892210476 0.6829858326555023
H 12.155686729550569 8.232038349437593 3.507425945392223 -0.33034743330030136
H 12.973794254954926 8.410232315245668 2.1006197441497316 -0.333315797533943
O 17.5892453798096 17.47445570315891 11.541947286062252 0.7136694405946242
H 18.204479543978483 17.770046099283174 10.815793027894673 -0.3499130422264628
H 17.20436045768908 16.583303516009355 11.296656598858505 -0.36084150353727773
O 12.520406686617266 17.31028767773762 11.280260126232056 0.688178855621489
H 13.353129254360566 17.356319116698565 10.74615929531811 -0.33753052454557086
H 12.291281727953312 16.362473042135893 11.473353819870992 -0.3377865304321288
O 0.830071084420629 12.580222342635778 10.222117820293343 0.6433975578386084
H 0.7747075349306161 12.578556194601086 11.210206926348539 -0.33051091039128866
H 21.816181700936678 12.16590206633241 9.842489269110308 -0.3266850851156624
O 6.878551240135261 16.62072346528316 17.161812426132396 0.661382329122632
H 6.325379303694342 17.42819093550499 17.25389994102677 -0.33175457200325786
H 7.389334516579222 16.664868936181808 16.30482800358956 -0.34595285931919073
O 9.032662761414645 0.8605770441718802 1.329795767337774 0.612150973688129
H 9.535088732818512 0.8742034857322064 0.46041823893865064 -0.31021857378735307
H 9.58730505768488 0.4386603272480507 2.0306102208648316 -0.3331586182455718
O 17.262913071503153 1.3465282964730587 5.228700853043027 0.6784593037530247
H 17.991777458881135 1.1892852915587184 4.557669770732796 -0.36298238910085656
H 16.948603057169176 0.4817747032044165 5.613226886377066 -0.32216885796284944
O 13.882229107207275 15.733117358868736 4.767448802014717 0.7098920796467159
H 14.544787941769453 15.850720029138522 4.0336492095256675 -0.35630446636116186
H 13.472377362711384 16.605638393187103 4.996627465229981 -0.35579116194493743
O 12.799492746734408 9.266448006572054 6.717305183456608 0.7343300880597514
H 13.382418734317753 8.469386420226103 6.7515141129557446 -0.3433902808951599
H 13.201683440800904 9.95199179983651 6.119577953058684 -0.36195150623760886
O 8.299885428717687 12.729452272262641 14.221165962823024 0.6572999259253773
H 8.253389360547837 13.066561949784685 15.154245376821738 -0.35633257367018867
H 7.440775824793878 12.921120806830455 13.757609776227426 -0.3496597640195366
O 6.719981226917344 16.15956692740782 1.5408987398115028 0.67950758978286
H 6.815516661142573 16.255435634018262 0.5424215094502296 -0.32183815820570516
H 6.306739544356771 15.258616703819118 1.749362989691196 -0.36194495442710617
O 16.501167211445694 17.204383953263978 13.940436722157719 0.710031615215561
H 17.030784767683503 17.302125932849112 13.099746379489359 -0.3560034371914783
H 16.228642820465343 18.097882781328554 14.279763092121735 -0.35135813822567463
O 18.410683901354997 1.7490222428941842 9.632749944055792 0.671135374113784
H 18.791785068601374 0.9081123336915031 9.272853210439047 -0.34145791465747655
H 17.42787044629056 1.7634011360607222 9.449232235569132 -0.35931099761615015
O 2.6274101333529374 3.261469883346862 7.197492416466991 0.6797736546713082
H 1.8474415932493395 3.7842226440803217 6.858657984712117 -0.34415356257284635
H 2.546211848024804 3.114834694450401 8.185703082393752 -0.33683788591425956
O 11.942113036504015 16.123101927809287 0.31666661361631626 0.6862260524762798
H 12.008511812640695 15.197067010579056 0.6874725023942713 -0.36874611603679
H 11.345357293376312 16.109617465830983 21.344849172435886 -0.3267743847543839
O 8.217666203920132 10.023833930359391 13.72595648458919 0.6750991766833963
H 8.61859751393787 10.009535351547134 12.799269697793028 -0.3466558370986056
H 8.315088604403456 10.928869114050396 14.112988529582582 -0.3545222028901839
O 9.158387609270275 9.101195934089805 2.9083668784685064 0.7065159794740499
H 9.788974055253234 9.488740043144793 2.2406725625105306 -0.35518170110155556
H 9.562067729581033 8.267012695240103 3.320924903204614 -0.3424065569063315
O 15.040550989853935 16.070976207994402 0.4372460906742697 0.6372790518423326
H 14.118346755735969 16.433859662619277 0.5130946953745203 -0.3271751398771062
H 15.424791692440156 16.27734926287393 21.37923144282525 -0.3430219011571437
O 3.7213462163225683 12.881001877852121 14.901218797434638 0.7191262262560505
H 3.5990863507988053 13.804187441533893 14.564088677502975 -0.35024702987841116
H 2.8769564844688875 12.35635480538741 14.772235591413887 -0.35751233486439604
O 16.140366902140475 12.922188519431645 12.889718802426025 0.6853000028513083
H 16.74459136779766 12.949894812582762 13.6825516498554 -0.33490660847028164
H 15.396998669339952 13.558156514781546 13.023312321204314 -0.34479950211847543
O 10.391473690220806 10.98251163094023 6.9594706817958665 0.6842470986668499
H 9.685129343061448 10.500649433421716 7.511936947432742 -0.3406855325789172
H 10.971062435953122 10.307286799402933 6.521392027529106 -0.33460350860479626
O 10.13695336239435 2.3590130885276457 9.710960845114847 0.6892093459501343
H 10.047922855313146 1.9936678837497814 8.781505398890388 -0.3470187849481029
H 10.115655216011989 1.6057611005596022 10.36419210791358 -0.3306783812482681
O 5.9035847629470855 14.869590459282495 4.908071688856695 0.6617594300109584
H 6.329014128899011 14.28957969255074 4.206719339700222 -0.34082450857337365
H 5.464429690542211 15.657021393959198 4.47448506413305 -0.33498478145083244
O 17.090474664723224 3.8490878846119427 13.809641745821445 0.7069165626608349
H 17.821815951996722 4.543905947349951 13.841852561205451 -0.3403183218664123
H 17.35840506048245 3.1045726669438793 13.223819238297802 -0.3605831416627079
O 2.5522479612058357 13.48312782681059 2.89682114372781 0.7074999573496878
H 1.58378186147767 13.491138430633765 2.626329347488111 -0.3543127052651489
H 2.6590011131292934 14.012807203543328 3.735475220597444 -0.3601328167401744
O 1.051563250043909 10.131565639561671 17.260810788494425 0.6644091626693829
H 0.28515703495210876 9.796990899651965 17.79114484683304 -0.30187985998554834
H 1.8957824741265137 9.822630857956312 17.672335620675888 -0.35146775582021383
O 6.717569276482976 2.028387649596026 14.893151670302128 0.6705760253558282
H 7.623127374874707 1.873424188719222 14.47600081499181 -0.3309280635510118
H 6.8045734556509325 2.077084220434185 15.866703385840621 -0.3263033525279482
O 14.401812238011628 8.559503043468409 13.98038560865456 0.7003947376959889
H 13.834073538567603 9.080244781374057 13.362208675394264 -0.3469171018494299
H 15.353862895706701 8.670197246605136 13.732050353612493 -0.3490308166831019
O 11.828769299981237 13.352201920757723 1.1912358199577153 0.7385340623316576
H 10.83446843758905 13.234307857456935 1.2127765114301443 -0.3792879059637432
H 12.16503536141113 13.517815053128713 2.123091238956175 -0.34268387540524503
O 6.127544050567416 8.419630903169955 14.312041242134553 0.6879452508945239
H 6.701920604641508 9.226398712308278 14.147336787369815 -0.36039549586097364
H 6.716411713696822 7.62495177281921 14.335719553699336 -0.3377829399739163
O 14.931815027336711 17.670354567793026 9.594147268422565 0.6383471700815146
H 15.267754225998516 18.320315283332604 8.91212292061106 -0.32976520227260975
H 15.578597702921781 17.60405322778032 10.337591587855066 -0.31488007867820467
O 7.161832130647636 5.649565610079901 17.084215518138336 0.6480427713426984
H 7.360438348850078 6.297370325986058 17.8228625069259 -0.3478610257969813
H 7.741020813615349 4.841934869588342 17.16921311865777 -0.3326736175232048
O 14.500675282905346 12.198203896136482 16.332849732548432 0.6891280192353193
H 14.430968631233847 12.107009934846264 17.315330441597858 -0.36509758401981296
H 15.461705107937762 12.13132990305552 16.05887919388079 -0.33940269490631014
O 3.9029158720521724 17.409051322391903 15.601440410189461 0.6593442094080935
H 2.990529907938221 17.815716108148905 15.585095102870747 -0.35134899713415546
H 3.8361720600929483 16.48234279792747 15.919944133331802 -0.36634966652629286
O 16.743685587777875 8.82645636760418 12.540628186356939 0.6959874500213354
H 16.47453835580775 7.946824882719571 12.167118416468655 -0.352432479410005
H 16.74198765141675 9.50531696435633 11.819875344317053 -0.3581707352167658
O 12.25058856303456 3.2501113704654094 4.489390950292609 0.6985638359457429
H 12.894576127423921 2.525152345635106 4.400382467381014 -0.3559181187223478
H 12.444597050904347 3.7614376883133285 5.3262194120084985 -0.34877061765273154
O 5.943432661291581 7.447455635805577 6.520179375061906 0.7006122449634464
H 6.432182844470597 8.29575586880833 6.34393408131715 -0.33829403360502164
H 5.05526715051562 7.475056832956502 6.040471290850331 -0.33472899276937185
O 17.76948889981086 3.422608222026042 16.41825833191292 0.7118127779687846
H 17.601775920122073 3.7283255809012985 15.485082086332305 -0.33679776763521496
H 16.93242905533384 3.0490772074126204 16.79317489945654 -0.3358121931621464
O 17.30094977965254 9.337805934128129 15.172479099153197 0.6933670184306608
H 17.686657231070278 10.249598230717632 15.314729645261236 -0.34541755826642784
H 17.214625635478843 9.184148282540468 14.175463151242404 -0.35508303435545197
O 8.588444044012483 13.741286676876818 0.16031149721980945 0.6557777133815357
H 8.12376972656018 13.890455714592512 1.0440594283030427 -0.3370891502272255
H 9.023622805813758 14.594810900017663 21.70282190376108 -0.30789008834652776
O 6.610462236692504 17.901602871925594 9.532122573863893 0.667422286879809
H 6.13717812811536 18.78199613247602 9.40171775455744 -0.33875723031996685
H 7.606426652643245 18.020726004006963 9.452935965246178 -0.33589732766097313
O 8.588585620783785 9.55947053176963 8.608190100780067 0.7147359577777586
H 9.131830944646808 8.871800998909832 9.087307314912033 -0.35187954709496816
H 8.275251192302775 10.24531370380127 9.25953834282597 -0.3570325531072006
O 10.832587310016132 9.840348393807545 0.8684103286973691 0.6707480233009342
H 10.588180341097665 10.359158000159857 0.053947322565111054 -0.32909959200253347
H 11.646425895796602 9.280907992279086 0.6724957948058883 -0.33048000143068823
O 18.61318571719857 15.692619831732728 8.507521838415345 0.6433127358035211
H 17.9024176360371 15.574329648312942 7.795571436745997 -0.3354522964577531
H 18.62935605348896 14.90644839361577 9.102172770175663 -0.3455387960181098
O 2.2104469346039224 13.139627856391886 18.439040531796493 0.6403818331356392
H 1.5610629469975152 12.412498092608887 18.228068515941644 -0.339441291128456
H 2.2502629894114357 13.274168444869195 19.41632290047094 -0.3288507885515469
O 0.7876120465722477 12.400197797555848 6.529506987893799 0.6365283327859359
H 0.794250075785359 11.939082517722193 7.410258397480468 -0.3271303048080675
H 1.6107595564342423 12.115955817367512 6.016855761201691 -0.326727344250776
O 6.721238645047799 13.914700997592236 16.240509718800546 0.7180010180867091
H 5.947512943133787 13.400138840538203 16.6146673727799 -0.35189628715250265
H 6.685501157213627 14.85427622795891 16.57061533878598 -0.3293676492990738
O 18.24263505935852 1.9213749224271062 12.273822172768199 0.7049430301690451
H 18.19643648713176 1.0178742749637006 12.719714749543451 -0.3212363384351641
H 18.264491241678567 1.808753224072904 11.278782695498212 -0.3659263138129294
O 4.280275654124395 4.2366314683290005 5.199846704894824 0.7117690621728556
H 4.573338085188639 3.5177752962840168 4.571795956870028 -0.3475721477642524
H 3.888688518741614 3.8298634431850536 6.0276990745154695 -0.3414785174696535
O 17.048815394056227 14.872113219231894 11.037307163848673 0.6755233358887205
H 16.12216429104579 14.61304382432309 10.781353274428529 -0.34522885531654757
H 17.31786906307423 14.374279332120144 11.864411036747663 -0.344780498988706
O 3.172726838662899 5.470505837885773 12.802311082106431 0.703715565297399
H 3.5576684463475545 4.879484022863843 13.517165800808 -0.33112951319149153
H 3.5705294587679033 5.21369766324742 11.929785164016772 -0.35826669377245646
O 8.116911080869324 15.859493878266294 6.87239660272309 0.6590464601841131
H 8.436520819441672 15.971405282155425 5.928867885675741 -0.3227556187527071
H 7.329388799977703 15.235323255842802 6.8869685513271985 -0.35000096427941463
O 14.24002327985799 2.1403334851550957 11.117804091432722 0.6655894135512872
H 14.752786286290668 1.4989034787733109 11.680025462295138 -0.3174649508539692
H 13.74736445642559 2.7699620719825564 11.736835572616698 -0.3571103846159521
O 10.014301026891061 0.33598849838170947 11.540714262621867 0.6255421041265539
H 9.386964244119232 21.431302857874655 11.229075515219655 -0.35990048045188294
H 10.931571199087559 21.819781805378554 11.535718154518051 -0.32264336633965274
O 7.698713515426142 13.30075813765318 3.006977463464464 0.6759353108297628
H 7.237861209178036 12.439022193173937 3.1782535188945933 -0.35422694760914875
H 8.605209274864032 13.264834310316845 3.416651165453014 -0.3250841792697601
O 6.180684682883908 15.670111017794513 12.840083666217849 0.7163089823849074
H 6.130617101123143 16.490717489083842 13.414677250638396 -0.3549017921722375
H 7.075633680521096 15.639212239461195 12.38634142447558 -0.34181740665097127
O 13.520887160999289 0.5216844915437016 1.6848872638725756 0.6594615829197314
H 13.87440077622268 0.10551154209109088 0.8385015998619285 -0.3501909943071242
H 12.632172367191265 0.14866966616320965 1.8772312220496532 -0.32092402487978533
O 13.000886539096756 4.53171082280664 6.909054107735048 0.6910299630548389
H 12.409759081272883 5.337388078607128 6.955470426617655 -0.34411127602207325
H 13.15205243400534 4.184987373882736 7.82552264486646 -0.33716964778068226
O 15.930477135558071 2.210161568159443 8.82260962620641 0.6609871693107259
H 15.088829826741375 2.202043921964626 9.35947149843487 -0.347356275019874
H 15.946703865781757 3.04284597223548 8.250634191712003 -0.336604348445131
O 0.3894226560145215 10.768182847206125 2.9987018080548267 0.6175305038976591
H 1.3822542484132223 10.65583188508364 2.9125793819589707 -0.32475100734334283
H 21.81208421239729 9.909446386516478 3.321562486978217 -0.29316876503372136
O 8.74870334997624 16.46099016219718 3.36905430212509 0.7140532357412024
H 7.979414478455185 16.10841921508883 2.82714334397111 -0.3548654775319632
H 8.412994728049481 17.172471877933415 3.996516272038195 -0.3638778965439641
O 17.55211288189961 6.07056234741019 20.933429854674227 0.7039241440597319
H 17.43473853166515 5.943182822702876 19.944034075370702 -0.37347737867682784
H 17.255332952144048 5.270594571812231 21.424387136477495 -0.31087833687638056
O 6.05898530283123 9.637955524200658 19.85331653169754 0.6939842161903869
H 6.144094841023518 10.478308102647654 19.303445662105766 -0.3535945239276703
H 6.524305292277933 9.770674679652213 20.72647448118858 -0.33726939832311476
O 18.418426750023585 17.672167356545046 0.3791515124285771 0.6533876521940609
H 18.958049544644922 17.386165016053827 1.194743792782495 -0.35156609915713966
H 18.72947528333289 18.567644564375325 0.08829112589128411 -0.3026238479242692
O 0.27087036558877997 15.963879247441902 19.788764475274107 0.6415056293828894
H 0.08642408849989092 14.998013608853816 20.006652349118834 -0.31885826287702623
H 21.764662399491133 16.545957463988156 20.541702267821112 -0.3182488898666751
O 16.409548165333938 11.084344952480603 1.1063697148710836 0.6171468706793952
H 17.265013324226246 11.106940833781383 0.5820620383639059 -0.3110623345375758
H 16.545568479515847 11.554563531338363 2.0037623059301954 -0.31584261455425666
O 15.251303416469007 9.989274861746695 20.523239969998027 0.6524334442050606
H 14.624860379147135 9.227034527292393 20.630618835294097 -0.3146865549601191
H 15.74758419058368 10.179927847335936 21.38352872641028 -0.380715498666398
O 5.977775650260291 7.292760246008754 21.324505071856862 0.6428277386056296
H 6.229374788517859 7.975148186012374 20.648852180446656 -0.34856130727929535
H 5.20102500077925 7.631351466391372 0.0369482346376064 -0.3185618519106195
O 8.650613039424686 3.475885850037777 20.568918197090525 0.6065278687121651
H 9.24825776736893 4.104908670931785 20.08099951656283 -0.3286771111994675
H 8.845242693360403 2.5396090007861534 20.28736469996175 -0.2905051105346539
O 10.083325236666617 14.561420428965574 1.563527998580174 0.6645647530395982
H 9.615189801760662 15.275127299865366 1.046949269055767 -0.33605024851258936
H 10.038310197010404 14.762543050142796 2.552627572542907 -0.3150200828605838
O 3.213158961032644 9.431137621678934 21.040193993407218 0.637588033336149
H 4.024909216695807 9.830661740139904 20.631557570387642 -0.3271476553243715
H 2.9509695262938975 8.60523671068923 20.530154404508128 -0.3080399380666985
O 16.322958126008448 13.772293113691894 19.431022563462285 0.7051341917618554
H 16.002296065953743 14.699053666642683 19.33192726655109 -0.34311368940167886
H 15.560987446319823 13.1426269957943 19.311302401174245 -0.34385944586845407
O 4.6371348861427855 17.43349151424897 0.02019453064281486 0.647300689347027
H 4.962756547020346 17.81857254631072 0.8891291850380779 -0.3472125243519414
H 5.4125737928842215 17.351125995603038 21.20020462101216 -0.31662332094295287
O 6.142402470700679 1.2233467102353268 19.79173211062207 0.6758575601657668
H 7.105481891108155 0.9997060676227345 19.864919566210357 -0.3150240393273789
H 5.833570383962507 1.0569366552943356 18.87086183604125 -0.332615441357648
O 14.340765449274196 11.88166293901111 19.032079937068605 0.7165666720574038
H 14.661982014917196 11.120927590990899 19.593791500000595 -0.38001001419380653
H 13.428326717914826 12.159845959052225 19.33548325847721 -0.3380666798042049
O 2.968352329629072 0.3482671027399747 20.329333268143316 0.6198209081508095
H 3.454528103655962 1.1834107501221396 20.11967784217729 -0.3208591734625724
H 3.573866531589663 21.53301354628921 20.777798958471138 -0.3318985943437682
O 10.32293647356981 5.489514380386246 18.778166523914965 0.6585381383930065
H 9.926365269306723 6.30106204232345 18.3932381080511 -0.3498538517502746
H 10.963051678337713 5.733631141281624 19.490568871473933 -0.32816352000320403
O 18.56846891643496 8.32787501058805 0.5632593434097778 0.6388685304270565
H 18.987117061251876 7.69562275961896 1.2068357265231153 -0.325163841926534
H 18.179791275787938 7.8082975322492505 21.619589639565955 -0.331852286329939
O 4.877466162101493 13.852563958485506 20.356154371159327 0.6982376770238883
H 4.001924344783127 13.707975432414058 20.81448596785392 -0.3582227681404352
H 4.707879279855786 14.106194365383965 19.41707375761176 -0.31451183433253427
O 13.901520953489918 5.749098228127387 19.40588589073814 0.6494212672942261
H 13.359661616129879 5.545392391856917 20.21150906006088 -0.34977123376030594
H 14.802693635476553 5.3400557295925895 19.49430457838694 -0.33219257386667433
O 15.81928547232243 6.392571989808395 1.5103770189350658 0.6279349940056882
H 15.501298057308357 7.005341055140216 2.2463388965241484 -0.33552946055774846
H 16.324978109910866 6.898428934822257 0.8309992073584541 -0.31080208867584846
O 15.398550127744087 2.7409002135527825 19.869310751420237 0.6780309713003652
H 14.792245224929172 1.9848867361083071 20.111141888095347 -0.35332486374710326
H 15.619079374113193 3.2496516264267115 20.698052826937065 -0.3466800973505526
O 13.032994413660603 8.383277019824211 19.042216730211983 0.6991481038562046
H 13.370066118075089 7.46954326519632 19.19689598323217 -0.33534676922764783
H 13.209911338985227 8.6426512518149 18.094255359183947 -0.358800928176253
O 8.148540472283155 5.7200658489376766 0.03910116627072241 0.6988350725831332
H 8.224692445857519 4.836987244172764 21.4212559334638 -0.34161781792752133
H 7.208683464309341 6.04648707893183 21.793372535377475 -0.32679166513039903
O 4.726779799556884 4.999561284057035 20.52783223061889 0.6430545496666333
H 5.327747482098478 5.792684772499165 20.56874209263327 -0.32943506051061855
H 3.7762629787929325 5.30523707203749 20.575428863815088 -0.2896620158665839
O 17.26118148473466 1.3534966839902551 2.0209205115075632 0.6231881024868589
H 17.979820052128556 1.1675054626405759 1.3445979499539455 -0.3121287627661705
H 16.947701746414342 0.46440283503764385 2.4170728134534216 -0.2994717499909737
O 6.720850704826544 16.158404677604096 20.16274677764 0.6917490262949455
H 6.813773689021723 16.25514275671982 19.171584176879417 -0.3614330418609699
H 6.323430752894693 15.270851002465914 20.367861702727236 -0.3464787977339604
O 11.942224145717129 16.118803822944276 18.932634537910328 0.6987811153683641
H 11.996630211258104 15.197496485002773 19.30572118602047 -0.3238247497355672
H 11.348244711196045 16.13770545183839 18.14468918265442 -0.35245831613133505
O 9.158998309769991 9.102777051268998 21.532218605131874 0.6549707065955213
H 9.783917180208755 9.464600589080627 20.84737843127265 -0.32767456576605314
H 9.558963536331431 8.271182681275112 0.09242881034630471 -0.30992829213423445
O 15.041723203850811 16.07407069685478 19.058656702291795 0.6654886981339505
H 14.11965696196769 16.448129004051708 19.13191474191039 -0.3262171860001688
H 15.412851819949884 16.27204239923963 18.162326476126285 -0.34903014348612327
O 2.5537477970449136 13.477681169323613 21.521543973085194 0.6550370343185206
H 1.5857023241575838 13.494008354147716 21.256835120621002 -0.35148813451602356
H 2.663657350008739 14.011096985785551 0.5392171791351973 -0.3402982718173734
O 0.7533167027416068 3.4465662511170683 18.9500202402705 0.6372289587950624
H 21.648882566155343 3.1580537684651087 18.66498680851919 -0.3022490329134889
H 1.0634082329013457 4.212147586743731 18.39422011809109 -0.33789865499271954
O 11.830652208000147 13.353635023339745 19.811779227489055 0.661999165922948
H 10.861262742299864 13.240339645765069 19.836718530718294 -0.3396025774639627
H 12.173097009085794 13.49688253417653 20.73652983934511 -0.34756059358858027
O 8.590387801883335 13.738276970353498 18.779110095288807 0.6493622704493482
H 8.116218718740736 13.888014879330393 19.659617888722007 -0.3150148883498147
H 9.031935843748178 14.579648052673866 18.491031014063086 -0.33951324314342046
O 10.829307629743369 9.84068429964768 19.48958413761074 0.7118475710417789
H 10.605174184551567 10.372814805385053 18.68354927191126 -0.34022769815371745
H 11.638907902263746 9.279792985155908 19.304970030357698 -0.34753658997567227
O 13.517825301876334 0.5220653962773302 20.303051525499825 0.6593089599833473
H 13.881951027983165 0.11132125337524537 19.481362876858793 -0.33601125108766683
H 12.629964681500127 0.14157504156420173 20.506472548981225 -0.3158380362150026
O 0.3892934631540752 10.769362430272844 21.622694411092027 0.6180826722968309
H 1.373063799869618 10.662937035799022 21.53542956062572 -0.3214364940515875
H 21.82379783962516 9.917963235393048 0.11030888544840733 -0.2967930986823213
O 8.749789586325111 16.46065413196268 0.16162596958725858 0.6730261347438873
H 7.982027136878402 16.124059469215407 21.446038122965117 -0.34607800696586144
H 8.431208885211975 17.17060013844709 0.7864029947009444 -0.34455561924860845
O 4.377239124731579 0.709314173374228 14.991418081651135 0.6913552501908313
H 5.200586495506654 0.16456942989393392 15.082038650295706 -0.34546581068309057
H 3.5733972313986326 0.12866426371069187 15.03446576341396 -0.3179721670426354
O 15.942144726416355 19.761890209441663 14.80199479061926 0.665125268560109
H 15.75226289320575 20.424734205851596 14.082486639562312 -0.31634462896944326
H 15.899531390992138 20.220157705561128 15.684948495311627 -0.3532911552731206
O 8.093204489422764 18.65701638414634 5.0207213430706465 0.7109979783063061
H 8.496282711692391 19.5748783300339 4.946975955648463 -0.34550592304141825
H 7.086680183851089 18.735778039693425 5.0666421901629715 -0.3642983876792678
O 12.809322626260998 0.24165399712215435 9.44192384069694 0.6847569948406305
H 11.952367834366626 21.58177853534815 9.298676375528675 -0.32007951361550413
H 13.429574101894907 21.535104840461646 9.995982222281619 -0.3541949360095683
O 5.4994163697976735 20.581313556102376 8.850563316096537 0.7106970914903572
H 5.453871197084384 20.53349432234478 9.836863438622613 -0.3373417273380539
H 5.504494354762701 21.530603292057688 8.561486524436901 -0.3517507659531356
O 2.0207436917810058 21.474075231027214 14.982893762113843 0.6255644458108698
H 1.2415651655937467 0.23597618570810278 14.851878519297694 -0.32609688152265426
H 1.912730738542028 20.992298453421878 15.83953426084252 -0.33668851270845823
O 13.999538512741536 19.692712227744263 4.258134750570521 0.6578415538114131
H 13.748251233999655 19.324626510348722 3.37787055222101 -0.3506937909861867
H 14.987516178076076 19.84380420532249 4.298767664730436 -0.3310635781560428
O 15.470881952741896 20.840133380168425 17.292300496960838 0.6796344959808778
H 15.419492018056538 21.215782118690104 18.206310911196972 -0.3618079247490411
H 14.742945537695347 20.153139545305436 17.16445167073184 -0.3240556839405123
O 6.139529346654517 19.835717143277662 1.1683633744443076 0.6359323609394689
H 7.113384120170951 19.619251823213414 1.2280523939112156 -0.3307254817119937
H 5.8319993315434075 19.669506441218463 0.24806901287130284 -0.31619093980431856
O 7.808665434443376 21.263361761517782 17.494235084148524 0.6472893876742667
H 8.492486427134974 20.652199398858293 17.933650614077155 -0.3145838332922719
H 7.08856470247983 21.458954090113934 18.134625981240422 -0.3260809734673181
O 5.391661478103923 19.264152759612646 5.118981735465316 0.7658946945567644
H 4.573289422881512 19.262440624608217 5.701364336871059 -0.3522090561546507
H 5.430406915794684 20.09362378442395 4.578494476465906 -0.38900151049207976
O 5.6137605497741525 20.84026522936381 11.472173301409516 0.6676381395121957
H 5.988503562397956 20.0107531777662 11.837723094252233 -0.3197886722831532
H 4.727524689542154 21.026812112295847 11.903284542338632 -0.3545061925840013
O 10.166980064598034 19.011188714812803 7.532162315972251 0.7022393343146103
H 9.437983310162762 19.059154690551136 6.837378385935512 -0.3256644098303354
H 9.930217259918193 18.320674389049188 8.223149778478595 -0.3380902463340876
O 5.268593655390953 21.182308846946942 3.279451236596518 0.6690839031542968
H 5.537195043455835 20.582661669895508 2.5379017554942953 -0.3331513817438292
H 5.2677933022497125 0.2968930701927953 2.973025865502777 -0.3332989110884721
O 9.147606758893051 19.512579985055734 14.023848626718962 0.693745908602434
H 9.411981782595358 19.31669630344383 13.07815474445505 -0.3425259683383908
H 9.867360632364857 20.087614505467133 14.435599070198835 -0.32403586583276867
O 12.739045845815616 0.6509718556460797 12.621479417140366 0.661582283869599
H 12.960658011223133 1.380064989294195 13.254161102098289 -0.34441862587682204
H 11.851764580696573 0.8247616579786778 12.207100559048648 -0.3392415114845594
O 10.129389073176144 19.669444501858372 17.699736745481825 0.6592458429280139
H 10.190881579661239 20.520231200273795 17.186232493443853 -0.2967847628458782
H 10.447865661942613 18.91653565425686 17.140199436186993 -0.3643533158656407
O 5.039469730742142 19.123024603721916 17.400244015623663 0.688626168455321
H 4.615270929507247 18.547201966706734 16.70845469526749 -0.3591364743883473
H 4.377417185466736 19.81107360978687 17.727609537544293 -0.32622372213022943
O 3.0673983443381148 20.75068449275614 12.312055623476711 0.6734085827404286
H 2.8335152426821453 21.121832568148335 13.206442583446766 -0.3308443581016576
H 2.7743855211054913 19.818756265210915 12.248232626601641 -0.3555297866762148
O 3.0711725919234327 19.24904416574215 6.1776555645639455 0.6370767505223487
H 2.9685433875615943 20.184260430173996 6.508011956794658 -0.3428784431887313
H 3.0161583559927014 18.614320342655418 6.9401610150809105 -0.34020740084520673
O 15.397358463779968 21.362321590297512 1.2502247654842866 0.655214607733539
H 14.809395232820691 20.61122518587253 1.476764123752947 -0.33009869963610383
H 15.621116891054866 0.05085638702321591 2.0855206306391216 -0.3349556920029614
O 11.601564419708753 20.691019556934197 14.768933334049004 0.6317363518505514
H 11.596725465018006 21.337888206418974 15.543207202334845 -0.3090339035859526
H 11.886881896420958 21.162573195045063 13.94447917890694 -0.3318395441705987
O 9.030029189593499 19.481627996573618 1.33082222582567 0.6377635416840981
H 9.5476687863305 19.493376739007644 0.4795572656102022 -0.29410300299278247
H 9.602625970668326 19.075300537615576 2.0436679363321724 -0.34747422653504045
O 17.262098979402047 19.967658684003922 5.2296022740134225 0.6980966541577764
H 17.98610755507261 19.80681283940037 4.5734057597965325 -0.33823643688225746
H 16.963009086381675 19.104659234794347 5.6039100704822005 -0.34951526899444807
O 18.4108367654062 20.371411566262406 9.631543978702062 0.7280007507051902
H 18.81436264724067 19.51797526017092 9.281000289392804 -0.36634987287722787
H 17.432123332772147 20.39402574849791 9.438204151044927 -0.35849929939957537
O 6.722852986481178 20.64900590740192 14.891035218944873 0.6812216712715902
H 7.610974928808247 20.495538814804213 14.485060761713745 -0.3488976147201326
H 6.799502147367516 20.70133961065979 15.890499640617193 -0.33396285015340565
O 12.250387597607727 0.041811580985750114 4.491929507860929 0.701753829329407
H 12.898920936450011 21.127252280441333 4.384627582492693 -0.31842740166333017
H 12.449757300106539 0.5379051914643639 5.320692410432019 -0.3573676144828768
O 17.770220169752935 0.21010264333134077 16.421968802527196 0.694189297610305
H 17.59085626179233 0.5145449697547915 15.497637662424106 -0.3259815447512111
H 16.934017468149055 21.662022618549507 16.797753718075093 -0.3423403836476663
O 18.238726823549623 20.540827632925 12.271584307835063 0.6995338253696373
H 18.208853915454775 19.63068999666077 12.72277011554838 -0.3057053020899564
H 18.272668524312447 20.432177067417815 11.279573107467845 -0.3540501774961332
O 14.242839239276611 20.761802226803386 11.12337009107583 0.6689169340163996
H 14.751787014876596 20.13407245930697 11.667975198819843 -0.3337755084092827
H 13.749679886379303 21.388483836222743 11.714540485122537 -0.3505099303453155
O 10.009267530188119 18.961066441191058 11.540614928381647 0.667105438026014
H 9.376448482539521 18.245679359030596 11.226140895463669 -0.34170692016569104
H 10.930293838123266 18.602887385364834 11.540335252022812 -0.3522784921146911
O 13.52267757876882 19.139662985988338 1.6816525885514344 0.6673322857244566
H 13.873762043477086 18.73298246377848 0.843324198031966 -0.3252567719738334
H 12.61306882302975 18.758995261901347 1.8676470966664949 -0.3555417045074867
O 13.000785864788286 1.320309112447602 6.911251047986209 0.654868720771308
H 12.41976790730578 2.106641883536346 6.938402091078389 -0.31828998812201914
H 13.14017078873928 0.977927976703224 7.836416647981025 -0.33150917079614317
O 15.928243391751332 20.832214987573344 8.818395518185056 0.6554181890271744
H 15.088318517374775 20.827650114539413 9.3580636920469 -0.34044575674867006
H 15.96116027328594 21.650933034105307 8.269248781472106 -0.33636690866495533
O 8.649615815505959 0.2713130378225998 20.57037325963036 0.6022792053294985
H 9.245099136801807 0.9072819162125266 20.093960252791838 -0.30916476793854375
H 8.83990233424062 21.16620380884262 20.265171647364586 -0.3158391068374299
O 6.139424563760931 19.83906488295206 19.794052457599648 0.6663096692271724
H 7.105515379366982 19.62240118927645 19.854408860820545 -0.2954739248998012
H 5.830628593374798 19.6661328810412 18.85165004286836 -0.3511110000875646
O 2.9701460595297107 18.970912089826456 20.33220520649263 0.6603940182075778
H 3.4621989356815424 19.80845038448061 20.124391911915012 -0.3054946005320275
H 3.587730830068841 18.31996262808068 20.784318935947514 -0.34148828694516165
O 15.404007210298005 21.36371579080647 19.86906097341984 0.6672387927922641
H 14.789762484710218 20.610323878086934 20.09816142695887 -0.34401857172496597
H 15.612660003674746 0.0573871304798277 20.70729463875171 -0.3601175553536753
O 17.26324918232822 19.968080301322164 2.0219334365931823 0.6329736512950754
H 17.980374823455254 19.801271988970285 1.3609120572890054 -0.31140324014902576
H 16.962155214839505 19.104140080813735 2.3962946638017786 -0.3187932056536632
O 0.7465296570452455 0.23906721719313673 18.950448013369886 0.6044792138047992
H 21.66419898709865 21.79327354624258 18.663515166970953 -0.3032697027282407
H 1.0601132456255469 1.0140011785301761 18.392819223706045 -0.29863562334939975
O 13.519497275761406 19.13820349974574 20.297437948760344 0.6561528890425441
H 13.879741679756108 18.731720412185368 19.463303876500866 -0.3302570592541054
H 12.62190458982399 18.766964042433973 20.513730201698586 -0.33661577217262295
O 20.920134046795535 6.280201393130132 1.1285880067168603 0.6125619640960762
H 19.988849237066564 6.264764853847335 1.4923777466966335 -0.3099833348391491
H 20.932812739572682 5.883131145984779 0.21864217180669127 -0.311471990174516
O 20.869988244319032 2.7537116527942107 9.961402714541311 0.7461669735416443
H 21.225084233098062 2.5717214089924494 10.891854842038097 -0.34595454488094635
H 19.98745808330886 2.3106294731788837 9.824107778693742 -0.3499401958581234
O 18.80951582008329 3.6829632655019404 6.468731085661126 0.6428392675388519
H 17.997710622874116 4.114768021970131 6.869608109901947 -0.318948090055155
H 18.537406050303726 2.9431457088547233 5.837118380919664 -0.34730493067433643
O 0.1448271388601814 14.352165731844543 10.611568919109638 0.6631099169631698
H 21.191423721590276 14.049491762885365 10.074950507234254 -0.2985049712943857
H 0.6976461639504887 14.936110618340123 10.032606436342729 -0.3359516023949978
O 20.930080112456093 17.130892313693863 4.827583946941179 0.6993110034519567
H 21.27902043537401 17.91469137195085 5.3722928266456895 -0.36030680166324625
H 21.365338912186537 17.125911657612967 3.914562690945911 -0.32016981295413804
O 20.92166992102015 14.344679085262932 5.380923617669431 0.6676334300933613
H 20.663684959123838 15.29967245446523 5.38381161793439 -0.3298374795987121
H 20.201289931440666 13.802166844473168 5.828232238588393 -0.3317462394496372
O 21.0205391236442 10.911153942642233 8.860908818836627 0.6842479587507668
H 21.16449223308946 10.089181743955669 9.384654520951447 -0.3249831093723292
H 20.476580255321423 11.548469641248182 9.399585101508222 -0.34733368484605964
O 19.84093064552227 6.430064750944001 5.63229468680912 0.6676889531204715
H 19.384845572702286 5.555363535400407 5.806293291308603 -0.3351273047801794
H 19.831314644996244 6.970903669120675 6.473914706660795 -0.3417636080233719
O 19.75540362820106 7.36777480490306 15.970116308596829 0.6543875340774621
H 20.639619917524445 7.25624356934735 16.415974090394727 -0.3287754080801937
H 19.609065811430938 8.341521355593137 15.749186086998877 -0.3563246291732096
O 20.59073913500314 9.761453278713741 12.639117608390844 0.6763733006053192
H 21.488460168227093 9.317483334545054 12.50155203793609 -0.3615347989248602
H 19.864933572491715 9.115350520686832 12.451832855250691 -0.3199391822287847
O 19.381764530735037 8.108288915664621 7.8897616250491875 0.6843817792340108
H 20.368326772331383 7.992609461648935 7.978123528284883 -0.3574256526111538
H 19.134509557658614 9.05422201057499 8.085157398187897 -0.33753548595389493
O 19.922497276630228 18.21316843914864 15.712512876697984 0.6780445152455323
H 19.82459034773256 18.079454285867772 16.69541055747431 -0.36808666060657624
H 19.067347447832848 18.567745455540297 15.34927573650758 -0.309318967346088
O 20.638198710147236 2.8503907858621336 14.985036818764542 0.6632379354037816
H 19.83104304381376 3.4486725224152934 14.861406739301177 -0.34324471498266373
H 20.542821748711543 2.370801562490208 15.84831814992251 -0.3273496736340239
O 0.6127277187791512 7.0012905322280625 4.8007925991622775 0.6949588900473191
H 1.0756517467786564 6.078888004455693 4.787237514964499 -0.3324086060634882
H 21.497690094917814 6.887032670415559 5.1142559057057735 -0.3321120844688005
O 19.40088602021154 5.561576815335888 13.862999049772526 0.721869094267853
H 20.30980612229644 5.536703635684335 13.453244826335814 -0.3578080031652886
H 19.34047593814064 6.291638520456631 14.528299273490621 -0.3515989298266631
O 0.8884100704093888 8.12914461044766 12.510757535001797 0.6547380964425251
H 1.749213432160736 8.253437042620215 13.015902897717396 -0.3368280603696281
H 0.4693042987803629 7.259247454656874 12.777139703808949 -0.33189780119229484
O 19.261808859196037 15.639280715244453 13.315556132505932 0.6350608638184987
H 18.796177171843677 16.446875002405957 12.973679695099998 -0.33382731986116654
H 20.236914656691997 15.83433795700359 13.392090911483379 -0.3442717691159485
O 21.693070849177236 2.1267624291485796 12.31246880004242 0.6364477322008932
H 21.457388098567673 2.502689481719648 13.204036433600393 -0.3295588153382901
H 21.39687860144543 1.1909126719871512 12.237312682985817 -0.3389242128716299
O 18.993625603891612 13.100213739855318 12.819293047315986 0.7149048566283378
H 19.518528935056572 12.619359598958113 13.50909577048669 -0.34063538919852576
H 19.22322127510469 14.081878085215793 12.878683435507346 -0.35902015354538175
O 21.811278292513915 8.100200601107217 9.495721567295556 0.625815727493479
H 0.9155705514701857 8.46071828757461 9.52405652494443 -0.33506488745517127
H 21.751975693478467 7.247130023392733 10.014467013081966 -0.29691290403782045
O 18.69931746588157 13.257989248074383 1.9984609414502221 0.7069787871198621
H 17.76628049812454 13.468802915072429 1.6935383213812771 -0.3492697251981647
H 18.79692666042209 12.268516210871708 2.126990963209996 -0.33812919677540787
O 19.501077458115354 18.007930026416368 9.271100116294608 0.7096540146448582
H 19.084324838877667 17.15409195054435 8.998020583824783 -0.37362719171009706
H 20.436456727599037 18.042725572545372 8.93399609744656 -0.33893979173081834
O 1.8302600648592444 15.682039585017538 9.100287263859828 0.6442749608932523
H 2.4760839531262353 16.411466202627683 9.187838890773673 -0.3384546872698687
H 2.2643363035067496 14.894230624142576 8.68853187640952 -0.33091088647700306
O 19.022018987097127 5.441465457389134 11.137836105188759 0.6752048282581864
H 19.868893211947704 5.127355478534647 10.722174180609636 -0.33722630983889446
H 19.140265619148764 5.581462486433597 12.126510550669495 -0.335995617681663
O 20.5090253982785 5.200365360145083 17.22128894934737 0.6655745256710777
H 21.099570047361023 4.808735082765478 16.530637993464026 -0.3204414930620303
H 19.93931146067324 5.902165456944581 16.817861957666217 -0.365772026409691
O 21.14243843102495 15.64228776402581 17.437136835539135 0.6564008131277275
H 20.842504675062326 16.202249433882386 18.202719340615023 -0.3541803619335804
H 21.068885040952413 14.68424681141005 17.71070753922325 -0.30852245171609227
O 1.520292786298386 5.001120107065677 1.9096991086352106 0.6204607035091776
H 2.1234255925014605 5.8119665170033095 1.9584312049474144 -0.2867065116723849
H 0.5668422797004403 5.310084828534933 1.9886953627824184 -0.3277556851729294
O 20.209886971918387 11.365655819846937 14.658464130122148 0.6867702037588943
H 20.421283220444995 10.745796333728503 15.427309637017673 -0.3335218015801372
H 20.308790936094514 10.87929392080216 13.793624527375007 -0.36469772352050867
O 19.451959055952827 12.582634748989095 10.223112134869895 0.6928062967629511
H 19.396726558918147 12.563684868440713 11.225177011208421 -0.36063573586175457
H 18.613061396812434 12.178091163047709 9.845266786618616 -0.3304589203805871
O 19.92084689363456 17.93764946773116 18.512067297814568 0.7525467809847379
H 19.512946698233833 17.21343054484458 19.026899018634683 -0.3648765564052796
H 20.564494589161107 18.43794371434859 19.094571636635294 -0.355097487927981
O 21.25175813380141 3.2589685686530685 7.201706040945748 0.7003236828168982
H 20.466650053885285 3.7662620906578352 6.858750051615836 -0.34522772404414204
H 21.15746199428461 3.114035645296522 8.167642156716575 -0.33843694919754275
O 0.5093861791195351 12.883894697575236 14.901398446630669 0.6623582162790669
H 0.38442777163045194 13.78429811042003 14.553412173372008 -0.30138634007479215
H 21.503603941379893 12.35796707123421 14.77512221526327 -0.32407254281765174
O 21.17008343146188 13.481448591283407 2.8990875738349398 0.7355585789295143
H 20.214619274869925 13.499427316192639 2.614687688178338 -0.354041676493722
H 21.28993922315881 14.005760780645229 3.7433414683444832 -0.33273789122169417
O 19.672656927492476 10.131332511002407 17.26274221071418 0.6711242121145009
H 18.906351948439962 9.787670679714052 17.796647416459333 -0.36026522654196325
H 20.511429294863444 9.82609985613521 17.680871740460884 -0.29866778158166507
O 19.37024244369903 3.4497541867387245 0.3329859305195586 0.617075396839426
H 18.465648296704877 3.166756877380296 0.050746684119011815 -0.3073038968789119
H 19.69290907337922 4.212328269351022 21.602890023105957 -0.3108669739046369
O 19.344807896179006 1.660635642345115 3.1801089746497255 0.645096488000469
H 19.184564632514796 2.50474521029982 2.634845226183274 -0.333742375913365
H 20.23126446241171 1.2896291084764522 2.9685469350092717 -0.3209223365405498
O 0.6914339501982689 17.415411990153945 15.602368907004976 0.6960339385332954
H 21.60981348883076 17.82622675418366 15.590727629489123 -0.34655413350350184
H 0.6130957964776234 16.464270991468915 15.921974544101548 -0.35929695939334005
O 19.408272054611395 12.400950914264918 6.531705730821806 0.6622307788543687
H 19.40600688488102 11.938848968252863 7.405876578009619 -0.3353738082773954
H 20.22942890878851 12.131143577751095 6.02391233230458 -0.35691576280765747
O 1.0694638125402824 4.241384606702242 5.196342436078793 0.6721294957823476
H 1.363501384082368 3.5179850738257405 4.584072902948087 -0.3413929157727187
H 0.6745403627640136 3.8376248101613224 6.008393247837899 -0.3449994971503314
O 21.79028167205882 5.47039796266057 12.799821885025645 0.6314477704060621
H 0.3495726325770764 4.880818591475535 13.515344615470372 -0.3214599994430254
H 0.36868608650387263 5.212679091178709 11.927614112175439 -0.3638172028961968
O 19.00966008628016 10.77200426690804 2.9975860229233713 0.6990235247300998
H 20.01209626370153 10.664650897012562 2.917090267058119 -0.34782428875339766
H 18.610310436830684 9.918184835300456 3.3154161139492624 -0.3485445737761551
O 20.918541973589935 6.279617060562258 19.751490825715553 0.6594083708263696
H 19.983088571553132 6.263792671407317 20.125668302280655 -0.3144997728117488
H 20.939043787307643 5.899645492200402 18.840104741261122 -0.3395134760604357
O 20.93177462096764 17.132247464892075 1.6188981240046234 0.6250833370469691
H 21.279420526664516 17.91417492127229 2.1525858893790417 -0.29431144783066443
H 21.38279893166189 17.124894285031182 0.7237365534059119 -0.33511562010223295
O 18.890909880125943 15.959614273455184 19.794910987363885 0.6875705048851852
H 18.69416275186226 15.012400414804038 20.008990904234835 -0.36532746989886944
H 18.576748227987444 16.527703030128635 20.52842809868169 -0.3320024806133566
O 1.4312412311204032 17.430854726094616 0.020142394167547276 0.6943534338928892
H 1.7521457180135174 17.80767667493062 0.8766600292137333 -0.3604017482643028
H 2.2014404138365267 17.358652533408215 21.199122555809478 -0.34465815185576454
O 2.178983866799853 0.6399178474745407 1.90996947607269 0.6487953074578581
H 1.3787545951261166 0.658556443329259 2.4909573096375586 -0.2827038620299216
H 2.185552448058223 1.466664602232867 1.368817965410335 -0.3451749998049183
O 2.0634437678839173 2.560721278268707 0.07180297413434078 0.6566075448346851
H 2.3309973989429533 1.9629039577355705 21.15443972254648 -0.309025282481441
H 2.074910926549142 3.503215629308403 21.587473457661677 -0.34967757752550566
O 18.699241889494637 13.260985518013749 20.622426119138694 0.721809721186605
H 17.77370830414784 13.48136814878705 20.309254117175588 -0.36201966444205635
H 18.81042022952549 12.265152669336201 20.75019847974441 -0.35585944826093385
O 1.5251139418443842 5.001407420838712 20.532653219081027 0.6158599392189821
H 2.1309552622881824 5.792157511844136 20.577975860135506 -0.29129667856694264
H 0.5770123919619867 5.312448496434944 20.584836672277046 -0.32862961817156444
O 21.167961462740855 13.483070304980366 21.52015853008429 0.7110422288544527
H 20.199644326672775 13.494041872350891 21.259727857582366 -0.365746063261598
H 21.289586158210447 14.00802686423623 0.525307675823013 -0.32156445122338084
O 19.37327517106104 3.4511856943751344 18.95200627540262 0.6747478041604111
H 18.43945763648155 3.1674442815104125 18.662743405231357 -0.3141337637829723
H 19.693080152610186 4.214119352646709 18.390809610277522 -0.33921773183080794
O 19.012099711039504 10.768557203767076 21.62175006181414 0.6858031134143747
H 19.990893761397235 10.654367103762228 21.529923294211066 -0.3328306331761054
H 18.62921887619365 9.90260467918667 0.12171063138907952 -0.35207013969253587
O 20.869918142521385 21.370093355352207 9.958993995471634 0.7376107949077326
H 21.231380831853347 21.19966722153537 10.877139894962687 -0.35134881609810475
H 19.990690988825058 20.923794032887947 9.83763666907044 -0.3380141678853952
O 18.812476619610585 0.46996271271862466 6.473115388754662 0.6446612017520046
H 17.99337440846381 0.9062613126657418 6.851242558469283 -0.32649940339750916
H 18.534835191227035 21.566104204725246 5.847458039728719 -0.33052460797630856
O 2.2922600376739974 20.5788336933938 8.849822256413056 0.6307445595250094
H 2.2472826760029707 20.524836054209377 9.849882270901958 -0.321965081560853
H 2.299600596640669 21.536581880773486 8.558279619936348 -0.30931349339933134
O 20.63996139623317 21.471870484053962 14.978461914247593 0.6524106511659014
H 19.846652754198754 0.2445312137327213 14.857608228681029 -0.3263244229383305
H 20.536921788394586 20.983953981288252 15.829762679531791 -0.33661787310450564
O 1.8284352458732778 19.121141292938237 17.40222559135245 0.675594809828989
H 1.4164423611912722 18.55023731756106 16.69363481002243 -0.3452952520563217
H 1.1678245741512991 19.807359935785374 17.7322186502217 -0.29996560849282594
O 21.691351742083782 20.746435499182972 12.308536986334778 0.6342221326714803
H 21.445225033305856 21.12097037914695 13.216871737920803 -0.3339743462132494
H 21.399460082749552 19.796504020082864 12.244697979865977 -0.3337958757824059
O 21.69263876866541 19.24803683433712 6.1800512823133715 0.6546327981654176
H 21.58369027751206 20.19935349672086 6.506478902656858 -0.3589869990006783
H 21.62750023895103 18.633309704463304 6.96466261377796 -0.3077015069647744
O 21.252520677598426 0.05378819661387732 7.202521921546493 0.7101072378973292
H 20.463956962098386 0.5494401430205003 6.863888397858668 -0.36579759353084285
H 21.160999307356718 21.7128921923808 8.17944250596277 -0.3465038548845575
O 19.36895912232915 0.24414419203245752 0.3256376276329422 0.6293256894994217
H 18.45921279066445 21.792736572618256 0.03713900316652382 -0.3035471953269152
H 19.674564504625202 1.0128165092776147 21.59909169211019 -0.3397126156894005
O 19.342650610417767 20.281767319767642 3.1793412573452176 0.6464407275573354
H 19.15096411141617 21.107832509253534 2.6499073391907784 -0.34828273659635456
H 20.235305405996883 19.921745968114674 2.967621666136648 -0.31888553718629276
O 1.0712311401479295 1.0309745997542796 5.202924122491647 0.6526798679225081
H 1.3676999994262462 0.2999076336269411 4.570565688646212 -0.3049563895802573
H 0.6841808531060126 0.6224301068009571 6.028984225378579 -0.33264622211621275
O 2.183100983256711 19.259789457805955 1.9072763981124465 0.6691567863322794
H 1.372898878019196 19.270613458651933 2.4959393605463887 -0.28489675822615057
H 2.2142793980269424 20.09221570265907 1.3629718348956743 -0.3783176044532056
O 21.589512385152485 18.971936853815482 20.32777010832163 0.68354106509417
H 0.24429535113896433 19.806391530788943 20.121355161513332 -0.3329333724732374
H 0.3907366909196842 18.331591763714663 20.780263457747985 -0.3544126433393283
O 2.0631763733156268 21.18365421767897 0.07096157799778938 0.6901370903401398
H 2.3258400582946317 20.595233182759934 21.16584116254753 -0.30999805149497395
H 2.0697350407084754 0.29882855656718177 21.576009197334717 -0.37256448312938917
O 19.368540656945427 0.24019393790429724 18.955679542667543 0.6264085947790985
H 18.464083805764183 21.79609599131479 18.66013359945046 -0.32366225130858983
H 19.68972841999716 1.0095746006841366 18.384306329681618 -0.30343026347240276
1032

O 10.72706340239773 10.734128907480503 10.913804048402898 0.6850149019647489
H 10.29744414702112 11.591590765079873 10.92275822203813 -0.3627658490294242
H 11.711618693142247 10.420737777914647 10.913706871233561 -0.3228271597642365
O 2.2469512705427004 2.7495039501597685 9.960761631743798 0.6920058131546707
H 2.60321571689433 2.5933363349252962 10.874408050033423 -0.3616719357587297
H 1.3810020370003715 2.28677807631708 9.841733797541604 -0.33242841414769164
O 5.690602773904653 12.752675698648437 11.649684520874056 0.6622435968162241
H 4.7564576183010185 12.672321427743421 11.307306581420784 -0.3313388924009256
H 5.809363898427944 13.623681475189606 12.086842750346044 -0.34024976744305735
O 15.547318269977913 15.110075182278795 7.0306213136968125 0.6764497121667805
H 15.004198702921212 14.976253817616339 7.8188370296097 -0.3551497186438307
H 14.979849304073303 15.208985740124007 6.23752815466381 -0.3572175887145438
O 17.433700341489214 6.172634446358098 8.558641119369932 0.6556315598277784
H 17.75603127627517 7.12304777720461 8.581345601645573 -0.3315035618367631
H 17.94502768616824 5.647974338082373 9.21806356084394 -0.3151450482335504
O 11.353404177570841 7.033150247550348 7.173222719963823 0.711512821837756
H 11.914042693035992 7.780283883725361 6.919526415318426 -0.35040630050604105
H 10.767878177291374 7.281344430142881 7.94627470845478 -0.3462270296705976
O 17.5484514075355 6.068961256292868 2.309968269170772 0.6715239179583499
H 17.42678549461517 5.918200532044574 1.3174382323548168 -0.3212016045459458
H 17.24423936672191 5.270988866404335 2.7856588257127806 -0.3510006092407826
O 7.678188139426644 11.442111936311694 10.229228887689743 0.7029602964059531
H 6.901533303629014 11.600821254604266 10.828037470997147 -0.34443536285591214
H 8.019725662402085 12.326824420464705 9.889305229119701 -0.3544183400398697
O 8.49892623457224 7.984720667131084 18.228687917057545 0.6762896975237211
H 8.476114847746834 8.745694107855602 18.881346290155843 -0.3387093285961805
H 8.713031180338998 8.346200451507755 17.338531724388044 -0.3359007369189295
O 6.85156692643679 10.118773529909591 6.647778971675794 0.717823794153202
H 7.551648623397288 9.970668153669177 7.3623223696837234 -0.35398423910561927
H 6.101960024195578 10.670298573893541 7.0470546124681634 -0.33227876999254413
O 6.861367334511003 11.60796531849818 18.033561019754842 0.7260992516842082
H 7.440914501323512 12.401035832873372 18.169932940104133 -0.3492204840019655
H 6.027554212470041 11.917157150665878 17.630268703204237 -0.3564014325835996
O 3.347868981621052 14.350475487862305 10.607988119081991 0.7088084996838715
H 2.5739670471796834 14.03724193579236 10.095248068382622 -0.335992859029439
H 3.910543109098965 14.94918607987417 10.035023850165869 -0.3517504673659221
O 14.607460501276643 15.051036495172095 13.392097510871121 0.6600543345701961
H 14.84465024741989 15.99957140128981 13.656465700079952 -0.35448676227183507
H 14.464172029666967 14.52199234968553 14.19763962260664 -0.3362016756885151
O 4.377715595596073 3.920994337717627 14.989977029813637 0.7143181947378547
H 5.191921796565543 3.3373613867035155 15.062298276249459 -0.3585440958400209
H 3.5778533587686603 3.355963958910512 15.026030018978872 -0.33482095188128935
O 2.306061402076498 17.13095870283271 4.829815161212479 0.7072343716805785
H 2.6485396930230976 17.893425512888854 5.350611512379868 -0.35303130525094273
H 2.74235427485145 17.129952008477087 3.944448357672 -0.33743333462475067
O 11.270341593791949 13.411541172165075 16.90226158725634 0.695114654982576
H 11.732893210756652 13.416122994997503 17.7802643370584 -0.33115340996397946
H 10.783957417762426 12.55097069280639 16.793218144112295 -0.3603358829477237
O 2.3069612108726467 14.343134524968999 5.378679163486399 0.7008537048501555
H 2.0515427603546876 15.309563036269694 5.392184240658412 -0.34516783801558193
H 1.6205615495220078 13.7989775433595 5.816919371746232 -0.35388268953499724
O 2.4021711927097398 10.909598460375058 8.857380918914311 0.6893737563781741
H 2.5173543064465984 10.0747973312617 9.353926446153555 -0.3237296547326828
H 1.862009002480764 11.531090398840295 9.418492034389024 -0.34625975981020574
O 6.199685443418871 17.865817885755188 14.388114803826378 0.7112621978859819
H 5.270908799615092 17.70920468054158 14.7451150841654 -0.3446888855245216
H 6.4838414764420245 18.785335925941894 14.660838197183795 -0.3401961535786566
O 6.057485932613029 9.640499563116183 1.2314239046701456 0.6811535458895914
H 6.140368749842309 10.477321215936291 0.6902862610603429 -0.3135782753092121
H 6.515023775903208 9.768182692730434 2.086537055813324 -0.3681791036914134
O 15.935696766077186 1.142533283645419 14.799300536244479 0.6729238714798127
H 15.756312851639686 1.8048501273033548 14.079861772778157 -0.31639158348328866
H 15.895571867535422 1.5856069233666803 15.692665692782743 -0.3468170861437221
O 18.426737631725036 17.670328131554466 3.592542946603853 0.6851133480215639
H 18.947017350403552 17.388632782873504 4.377232058539662 -0.3552059791785106
H 18.725686159037117 18.565988186040855 3.3051503155051103 -0.322868542842051
O 16.891141231166795 9.219400494853952 6.119028660690874 0.6979611705307676
H 17.82276308852159 8.925452232120978 6.18828814119829 -0.32064108653595347
H 16.821606955135906 9.859508681189869 5.3596049372698324 -0.34302372888122523
O 16.409866731638513 11.077986458420275 4.316161765787 0.6819041263076198
H 17.264249082719605 11.118951027089262 3.8101794644007025 -0.3448257316959322
H 16.54779752438245 11.542026129144908 5.189072507621651 -0.36334797251295314
O 1.130321369974335 7.37630402085231 15.963952353359689 0.6840580586983949
H 2.013603882007966 7.2376146270163355 16.41169596221904 -0.3575637482469809
H 1.0047088913709408 8.331403143148872 15.763283531594883 -0.33800021232608324
O 6.129977627683986 13.655036722354039 7.2583145792975206 0.754144481692185
H 5.628557813963178 12.804672472951529 7.336892543446031 -0.3755564578212659
H 5.888614714099417 14.072329981029679 6.401398176506503 -0.35863898921077697
O 12.927731348964857 12.281227576578845 14.23099707078106 0.7442214435797725
H 13.317435355088929 11.562240811502752 13.649228394531411 -0.35169647326085085
H 13.447756047367543 12.324192107543775 15.078940947727247 -0.3601898395536707
O 8.082850888059347 0.047272505539188284 5.018872420922394 0.7529275251834662
H 8.518346404284662 0.9703013597065859 4.926596689390523 -0.3352382771037652
H 7.1113131722737295 0.12499655956398963 5.088817048522932 -0.3639325290729827
O 15.241371479730091 9.989813751023448 1.8994787788251961 0.6079428759775807
H 14.640759120597517 9.222987364398444 2.021533055657143 -0.293627647963813
H 15.720856292485333 10.181697754804677 2.741429577351394 -0.332380242665695
O 11.865784464710202 17.92000352197087 16.16061168196694 0.6931162433463376
H 12.108714940474078 18.509851090030025 15.395488876735358 -0.3057379229737127
H 11.946201621145532 16.969671132224324 15.841166335578295 -0.3631667580328427
O 3.173994215387791 2.5076420384122753 18.011161685296564 0.6858881548510931
H 3.8734025645860175 3.2264853665039586 18.07963767449548 -0.3300935484607448
H 2.297529532605579 2.9087454251391796 18.294841628072305 -0.34787435199032657
O 14.664028503066147 14.167898154970208 9.531514253326467 0.7329303316431997
H 14.086733340701228 14.220477448626943 10.345350259418833 -0.3435884664051998
H 14.525820214509185 13.293491352245336 9.085153835905572 -0.3578041199660126
O 16.669948655108378 17.143960587842624 5.717920190333717 0.7048513706490107
H 16.267818701429242 16.921468795889563 4.831553444022283 -0.3395830395770162
H 16.485632828151388 16.423797725066166 6.390685387959426 -0.3387685056905575
O 5.979621498080201 7.289705777473747 2.7038659852307467 0.6617190981010408
H 6.221233915160402 7.967409356977499 2.0260245426371517 -0.34918240216099206
H 5.196674637783834 7.612364959315595 3.2437705794541207 -0.33571207112038637
O 12.804315875060613 3.4509260115235865 9.442625237830583 0.7112965578408588
H 11.947391532820927 2.959348831309448 9.30261080584791 -0.34080076500484524
H 13.426571276648108 2.9108280998782083 9.991359907136683 -0.3509583264665458
O 15.765300654263017 16.617241406336195 3.070238958125175 0.6973405335611353
H 16.652375800977065 17.080250770804412 3.0918317984860275 -0.3479223486657207
H 15.550558349775208 16.391344852025856 2.145595226263239 -0.3525050885932629
O 8.06929785396642 6.046152907325395 14.649930306610564 0.7484119383996761
H 7.58290325075964 5.999388524124683 15.542591147412137 -0.35448228555912376
H 7.546185639579881 5.523651795728392 13.997155373878014 -0.35517240002079153
O 13.939384722657415 4.685267346371458 16.741958412634574 0.6628836157107614
H 13.738574699555418 5.123637781843549 17.635080338610425 -0.35172889515595873
H 14.71519856281078 4.059962105200269 16.84064112905389 -0.3332398916279158
O 9.733959409739688 8.904023220443857 15.721073043933243 0.7451399107819867
H 10.199355646358619 8.042781821424784 15.440381569343048 -0.3687949781593678
H 9.183762050573407 9.254220496000785 14.978002015699694 -0.3441332207538814
O 9.909120640968036 4.101163394695798 12.415425262717749 0.669031127626547
H 9.154327147165597 4.447465492173953 12.959198608286194 -0.33635763322747747
H 9.555633417196763 3.6010493499973957 11.61847628460115 -0.33767425065234813
O 10.410099195945728 7.008191972294266 4.289774441266631 0.6937705158860403
H 10.683572252243096 6.966643098770155 5.2441327928644235 -0.33759276753163636
H 9.571795159790815 6.492295688684986 4.156821788377466 -0.36380381957121677
O 0.7618399987470839 8.107967190443857 7.890716361258595 0.6315816942200003
H 1.7282328289629103 7.986980311786755 7.986753398720029 -0.3245177841884268
H 0.5266731890123747 9.02816153139964 8.087579632680301 -0.30540844874735074
O 8.651773362815385 3.4829829371633334 1.9469018225751782 0.6785166589566511
H 9.231606516783959 4.103011043598474 1.4629607849269632 -0.34510160531540235
H 8.832397487690772 2.56051033943804 1.6695619274752345 -0.3373900387817883
O 17.192155976613826 5.849594114470255 18.30713301814946 0.6847150837877667
H 16.910963795439173 6.75184436201954 17.952610271270373 -0.37018443780945376
H 17.163251751924363 5.172797015018811 17.583924864698226 -0.329959746086151
O 13.617544318216087 11.444045682847458 5.446122517798035 0.6842650864083382
H 14.430300246617026 11.150651594913306 4.981719222785003 -0.32916103857932866
H 13.145094074288696 12.117358009035081 4.871072728674379 -0.3544923064497729
O 5.498521399178547 1.9564105396616709 8.84834380794941 0.6960288977158378
H 5.452556589912257 1.9063939340880154 9.848104225282908 -0.33616027642967483
H 5.52497936903969 2.930154989605523 8.550054443708907 -0.32792978352010804
O 10.081256429335879 14.55346035998626 4.7702832711197045 0.6833445225518417
H 9.60946559205354 15.284663833038168 4.2530792571902145 -0.3384472859382316
H 10.067680260711674 14.769863421699473 5.7421318923512 -0.3296530888028253
O 3.51511146067178 18.008452262498725 8.530710680305912 0.6781444970111474
H 3.9943781091218704 17.140594794732436 8.58344542532114 -0.3469547691656507
H 4.156229840933954 18.79324846380872 8.481305932626187 -0.3575316926337596
O 17.952665774827302 10.660151750181846 8.728210313971504 0.7068880836153131
H 17.324287197715762 10.486474271064463 7.963156083146511 -0.3323408911595537
H 17.440223998078167 10.79026323188204 9.572136101903997 -0.3483208574401737
O 12.26995720120967 15.50137914692399 15.059307622844008 0.6582816048321316
H 12.339184156093685 14.744361314935155 15.717208450902053 -0.3464779259438532
H 11.751869700265406 15.232028127004314 14.26138704252376 -0.3345249856116005
O 3.2076364889138005 9.431410605890381 2.414623264196325 0.6417623010018332
H 4.011070658338905 9.830977486735593 1.9947035710794623 -0.3316058220559608
H 2.9210018260119717 8.603411765360821 1.9333383980874388 -0.3126704949257364
O 14.588826068891684 7.346819569033473 7.279303050875769 0.6525495146115965
H 14.525831618291246 6.701401620273014 8.02893574448965 -0.3489024416161999
H 15.382191243286222 7.944952748642779 7.413930670539164 -0.32567399588601553
O 4.615743314513958 12.657873133039246 17.27028414372892 0.7134733371703534
H 4.109104334534451 12.672032482279153 16.42611016401323 -0.3854365873026123
H 3.99324883718412 12.471992299714595 18.028950003939755 -0.33106171651730953
O 11.106655763671577 17.758064677877513 2.3736320479780106 0.7016797980087137
H 10.482714097418981 17.125628694330643 2.8547932123237385 -0.3528121527471634
H 11.424065824015763 17.337276759998304 1.5149629745870428 -0.3343594621711432
O 2.016986090610613 2.8505807700474217 14.975715445853117 0.6127818786846273
H 1.2230080600018332 3.4240286291881654 14.861748159984124 -0.31249954649542155
H 1.9051321450090979 2.3470354536596885 15.841253304145214 -0.3351802909960415
O 16.317464642322197 13.774636868344185 0.8127109859177702 0.7101581373867845
H 16.033540798333814 14.709169176851718 0.7241901193818578 -0.3336555433566596
H 15.56010012478118 13.12733088450325 0.6893108177519627 -0.35717098700526206
O 4.644098698486611 17.431268932148004 3.226421902613574 0.6665586541452164
H 4.979130579660278 17.7865670423705 4.088041993177422 -0.3430127951378862
H 5.389297925186188 17.354451985380337 2.5884754349776906 -0.3079609462077614
O 14.004308283963258 1.0717874449310083 4.2586827769389615 0.6419690855903939
H 13.754697685093841 0.7189617140719747 3.3593510280189105 -0.34497056273572757
H 14.981853507972364 1.233841587072401 4.2866567011177965 -0.28470606333111004
O 2.493011677752053 17.853747792656012 12.409728032489024 0.6581012017034436
H 3.0565612515505376 17.209151631979243 12.898892415916517 -0.3357440791483537
H 2.3206727218409715 17.51507486459362 11.502106581580646 -0.32717737348955656
O 9.403504669384134 16.978578254630463 9.035965305473662 0.6805211253190588
H 10.199680287176877 16.416199638720013 9.252973850410573 -0.3322368215778865
H 8.88818359994014 16.57231505404752 8.27733831547756 -0.3660374146054126
O 3.8219573467217307 7.0012367588535 4.800776672768257 0.6854485795608554
H 4.282638606279474 6.10612309540078 4.77592521007797 -0.3590960650124895
H 2.880764436580573 6.909941694083644 5.125502453555727 -0.3368434594287686
O 15.468127011902645 2.2216869216242126 17.28967036537058 0.688727029337338
H 15.418663454344747 2.5862124496188006 18.221938590748486 -0.37332418250667054
H 14.750603847639235 1.540066649406618 17.168088137454596 -0.3257345273402914
O 6.142989806413352 1.2215395006576222 1.1706362048627394 0.6472488336904982
H 7.12185829862209 0.9996329864241154 1.2403767114515196 -0.3362021716339444
H 5.830421692691501 1.0529062161927243 0.23531237603033855 -0.3267212359338568
O 7.813330060812849 2.642384227249302 17.49011047571755 0.6535492672314174
H 8.461795606348376 2.0388969477025767 17.909597893908376 -0.32677768894860093
H 7.07204398036649 2.8534142021879236 18.13883906854614 -0.327629822000719
O 8.88278070458703 15.146748951734637 11.9498224234279 0.6957766041315807
H 8.648750258211358 14.899333616053324 11.02271165583118 -0.3388700497608541
H 9.504043747226724 14.457795072142368 12.342572048918282 -0.3501410164581543
O 13.510432561898675 5.908348487042467 14.328009865857753 0.7068826694027157
H 13.791661318405456 5.471595124760492 15.189356202665525 -0.346243298923813
H 13.774181526192883 6.832397803552724 14.343221260096362 -0.3622052576708935
O 8.029500318373026 14.021663213714872 9.235944136259945 0.6951124583936643
H 8.934210258025928 14.153697240893987 8.84944221191247 -0.3416709329552603
H 7.335265823787183 14.040309828288217 8.541490728921868 -0.35317015522868045
O 9.222763877270108 5.03188942582485 8.990467635533506 0.7199988847189251
H 8.986022502042674 4.944876449594204 8.030610840037312 -0.37788541568030865
H 9.70701900580203 4.230092777099483 9.290099527776134 -0.33488883470659203
O 5.393682614601296 0.6402467236619288 5.117182778943508 0.7313385642694463
H 4.566120975948248 0.653403669697474 5.693563650313204 -0.3426115024001516
H 5.422113953750915 1.4682897218112976 4.558164444875633 -0.3394054042640062
O 14.335090156364796 11.885414594533714 0.4086627471553429 0.7175917623746368
H 14.649497199694098 11.117063917205666 0.9578406674362928 -0.38038769388015536
H 13.45739919521524 12.11666493400434 0.7020357972870942 -0.31990498350376795
O 9.356548621697865 2.355513247287894 4.797575309653878 0.6401627394935234
H 8.881655358953825 2.754523297120149 4.010163524846381 -0.33970065638714675
H 10.336754432340475 2.351477981460304 4.6065507659962055 -0.3473998107450391
O 10.760464379612321 6.831989083695748 14.639219172223779 0.6536616271447038
H 9.96621819213555 6.2316743515904705 14.669018075998677 -0.36035135884928093
H 11.58182243244907 6.28793678062131 14.397450116587391 -0.34327570339339075
O 12.271125270660587 15.705481903687451 7.9295056696812365 0.659069124461567
H 12.495015687798245 16.456148820142833 7.291905429707176 -0.3392570656323586
H 12.962775320608655 15.700405156693668 8.64841258519753 -0.3213326302244911
O 4.5913857779856295 11.515841977857292 7.417423469398205 0.729539504574789
H 3.9056353714929757 11.239103899559359 8.060397332614855 -0.3606054615811016
H 4.31395216792077 11.247495640910921 6.4975579629794815 -0.36980723921476544
O 12.716500849998255 17.97311622043007 5.909510905805267 0.7006267721708603
H 13.142958525457667 18.621593087339704 5.291841040664523 -0.35294142445787424
H 12.20867073418891 18.472452643396455 6.617788779809489 -0.3390809047121084
O 10.321357752438589 5.495645278501368 0.16275540356222568 0.6522817559986116
H 9.908515449874477 6.319007447926425 21.62329997026919 -0.329473204171438
H 10.935686949114876 5.759430628258511 0.8902678627515691 -0.3207668894293638
O 5.6150441933792035 2.2209012178377074 11.473052564604645 0.659249393036033
H 5.984176546874825 1.3664634054216207 11.832630663757131 -0.3317333807325371
H 4.728558969388847 2.425607460737041 11.914837647582544 -0.34771075915653227
O 8.661895910792245 4.536777569479248 6.424591053228978 0.6678561361703563
H 8.345068976949971 5.260440406158859 5.808055967200472 -0.3325180984312224
H 8.895906492460513 3.7433517905272202 5.89760224637509 -0.3457982552874289
O 10.16259990078299 0.3927036795760364 7.53234514010723 0.6473783712745735
H 9.457121506613875 0.4285745009481148 6.849044768159188 -0.3520404022196215
H 9.927681738698459 21.547331030833348 8.216465571001644 -0.30191035914564157
O 14.28890562061314 11.736109776612738 8.672457050004308 0.6595796457429586
H 13.729172647439231 10.901060483844622 8.62531113537203 -0.3425033312443697
H 14.537337037848257 12.027900927038539 7.7528318454501095 -0.34983182997866924
O 14.662423644099222 5.89744473531118 9.91857813786233 0.6650782841622132
H 14.354164718345272 4.940089820158682 9.975281218956884 -0.32721286859741483
H 15.39381592596635 6.06288730870883 10.580696445695663 -0.331301113946016
O 18.57341151341613 8.331567961609633 3.7649719975950533 0.6749750418357667
H 18.994708513893933 7.693451264155473 4.397053630390293 -0.354172415495853
H 18.190970172111616 7.819957435189673 3.0023710904752097 -0.32740097473493535
O 4.8839166001619665 13.847655836068943 1.7420626485415602 0.6946827283374946
H 4.016405702570784 13.729383683098192 2.2028903315174326 -0.36700245769047346
H 4.7225650621061 14.108732835143222 0.7671798365665673 -0.3013009085838886
O 16.644080199440758 12.798819025397206 6.56781101947049 0.7229150960321071
H 17.611986164963955 12.873254788729001 6.712772437019683 -0.3419221220251246
H 16.188801882721013 13.62312846134832 6.873237136169528 -0.34732625647857085
O 13.900721141092642 5.746415190781117 0.7714816035283169 0.7389980283996742
H 13.381742260813722 5.532662523123249 1.5619130860141397 -0.3628797258993953
H 14.807050532971267 5.3415899292377675 0.8724182491115268 -0.3599328935082453
O 5.270632264720863 2.561533111839924 3.2812858451185103 0.7086275730004914
H 5.53037577439388 1.9810060573318309 2.5327563149064334 -0.36583920601088105
H 5.257467458514021 3.515633851889336 2.962981761281291 -0.3489559165797047
O 17.541026886480722 12.231602808375877 15.876219675329493 0.680076365920419
H 18.470602406176837 11.846474508681032 15.75921946544742 -0.33445179264443636
H 17.61868811237843 13.212693556796232 16.1109630889595 -0.3479449664521287
O 10.635624494988463 13.471286299049614 13.402457104248874 0.7424360041486056
H 9.854419868905808 13.216608689355063 13.97019397412674 -0.3550879439345801
H 11.481726181853222 13.198153117759583 13.883148301662345 -0.35021699484024826
O 15.922676616618674 16.28694795046906 16.247777037463553 0.7264293861893529
H 16.1914606837233 16.63274157717712 15.354452008832093 -0.36418538252577526
H 16.700886253835257 15.894602474134803 16.72240347511336 -0.32961203018495944
O 16.37693429853986 10.991898705182987 10.78409111544224 0.6681781438743677
H 16.421490147488186 11.816022396743541 11.366463744413462 -0.3648953177337936
H 15.506194588323645 11.00928163268031 10.291601938445433 -0.3405038606591829
O 9.153974683427377 0.8864915202573768 14.021673282853143 0.6814187845339061
H 9.403164380210512 0.6757539030806594 13.093338232980916 -0.33454498120255427
H 9.872018662520789 1.4468795561626646 14.45215768357864 -0.3201170019549596
O 9.798914387367397 11.159857461010237 17.189235531609608 0.6855748427552504
H 8.79598984922082 11.207406905762243 17.27286100147444 -0.3412610010967274
H 10.022469262970686 10.374895854157321 16.62853810749554 -0.3551636605585323
O 7.054404029929943 10.501121742194924 3.6845180830699857 0.7293372399620459
H 6.910839012681272 10.576714959057453 4.672338120824378 -0.34405763173484283
H 7.879718330060741 9.997021371508936 3.5119651102445006 -0.3711407548786929
O 4.093720846615858 8.127314488330923 12.51059774109393 0.7047061103258256
H 4.953634614862738 8.257502505276237 13.032920808365764 -0.3377437891854268
H 3.6963227678730526 7.274917521359625 12.770956725175363 -0.34296284832236423
O 12.742011738106118 3.8595398630354967 12.621650540631716 0.7180202281055958
H 12.962312935360467 4.6060638607807265 13.285584495570623 -0.36047295999760964
H 11.858238435996238 4.033670471915415 12.198049057032113 -0.3623835400723069
O 0.6378926410602206 15.638327619441663 13.311295926647324 0.6345706039237156
H 0.1936679865025263 16.461586760319367 12.958188869089854 -0.29366043924236274
H 1.6224138439387783 15.845255091754094 13.3869121630071 -0.33882288777863345
O 3.6691543039868595 11.009912631339207 5.009449666491042 0.6500926688533291
H 3.6045923239730895 11.830043757367518 4.451744442046196 -0.33382025068195864
H 3.7011361206783766 10.200478234044995 4.403151622731338 -0.3483286477514399
O 5.661724477008692 5.370969593485852 8.648085479345259 0.6786144435122647
H 5.802706159394212 6.02464109865865 7.916578377957785 -0.3565780494924342
H 6.110888292090668 5.73851246067536 9.472206534649953 -0.32351152122530835
O 12.52286162899393 13.471976991980736 3.8828518193553716 0.6778811117463652
H 12.99462264412004 14.258641411976974 4.263358923161157 -0.3485241046008104
H 11.566716359754787 13.520380835168167 4.214591558955741 -0.3426983377871069
O 12.72091635764422 14.454365715821524 11.42365571866757 0.6641387436675492
H 13.197649114005793 14.5672619669732 12.287393424260587 -0.344098508161342
H 12.079797246210273 13.714261489138153 11.492637545017706 -0.33906792686259635
O 15.824005088932084 6.393004650340082 4.716323016683091 0.6594430702055298
H 15.515197435083689 7.002619282935746 5.44984070007449 -0.3457751288356148
H 16.321478528956007 6.907742844469797 4.047392933730517 -0.31176139531662983
O 3.537310638006937 15.102340267114458 13.294797515729298 0.7105269842153765
H 3.316605720743315 14.666650198691979 12.432678796985114 -0.3569403833263659
H 4.485805906553088 15.36082882681884 13.3217558153965 -0.352095559596838
O 4.025140428413016 7.514057372784692 15.988547189890092 0.6598458911210718
H 4.701333400257011 8.04388008198671 15.517214707341706 -0.3604727996812469
H 4.443836393858317 6.634092130025296 16.247543275221727 -0.33769036154773135
O 15.868237824104476 7.788139902767617 16.703663686955036 0.73190577976189
H 14.964699597262879 8.167813822154198 16.645135064638115 -0.33446823944236426
H 16.464932560643465 8.26975329520642 16.036932449324112 -0.3619423591971198
O 10.135327764988684 1.0463985210115203 17.70053180800663 0.6458317107254885
H 10.195675482439928 1.8957881174990225 17.184897850335126 -0.34352573469721714
H 10.429977786858627 0.29999430266992105 17.138749860467588 -0.3093575567593122
O 5.0395142786275064 0.49701503153755355 17.400592661367387 0.685936836067218
H 4.626362224326745 21.76536767821201 16.703342372343194 -0.32949090095857436
H 4.37320009434844 1.1792388463960184 17.733427659245248 -0.34585027596521933
O 5.730751803453542 8.696616726113264 10.290817437845966 0.6657828498417615
H 6.166587213148803 9.588188500070311 10.194280223214873 -0.3282217855307932
H 5.0912128912664105 8.683852130536138 11.065103134595489 -0.34553612466296413
O 13.60545643347668 8.615374359938748 10.448213707954116 0.6806789638041577
H 12.83808678389248 8.646180163493709 9.786220846084515 -0.3414917783765449
H 13.971689874229117 7.730759661036922 10.548354535695644 -0.3536708703033473
O 12.093592830516414 5.2537542760414 2.747987563501033 0.715628575469557
H 12.221942206795362 4.420109762421988 3.2784666831107327 -0.3573456682966918
H 11.809360096029023 5.973526140723937 3.342580268942152 -0.33994961380683775
O 3.0688303211394925 2.126812849446403 12.310138541904307 0.634163850400399
H 2.83248390459524 2.5112817232639015 13.210297685522253 -0.3483237030372974
H 2.7671415597052964 1.1768993430185015 12.248638064861112 -0.339823418415937
O 7.318730477107875 6.339044585539212 10.641047570219989 0.6823550017581788
H 7.919561598009935 6.07834180299119 9.88738986654633 -0.35536769532999646
H 7.048773386712821 7.282080571136064 10.529261263434627 -0.3471409691795876
O 17.283671324734193 9.356876770717559 18.542420616773 0.6737405821377731
H 16.81633581771438 9.280831931946462 17.65814847023932 -0.3258792783875877
H 16.665413815443095 9.79613588882592 19.184964000403653 -0.34505539246893
O 3.0700650052731615 0.6304233912693299 6.17762452331139 0.6069958009529621
H 2.933732707222763 1.5391502509164603 6.490249086374332 -0.35426050451584146
H 3.005463779052513 0.03504331797230936 6.94624651718147 -0.28384549318444685
O 16.22098346237267 3.663247439767942 3.741590596612972 0.6723423218838853
H 16.251840223096497 2.9112498368646276 4.377181880024281 -0.3388324379857257
H 15.740992366361384 4.437820822222855 4.123771308414231 -0.3445638045713676
O 10.2359651363517 7.656318524866358 9.659305850852672 0.6900252819151538
H 10.3885065721255 7.867254062175655 10.614961056965038 -0.3536068384084875
H 9.943255877011362 6.705612673317866 9.59068177640459 -0.3441996321821845
O 9.802516415449764 15.732020674043667 17.003182040963914 0.729972964001524
H 9.597377279086487 16.16790964640389 16.126953310112924 -0.3605296138215547
H 10.171540550147636 14.83825345058061 16.819669745678617 -0.3358383355037946
O 18.587754580437647 15.178884127073799 16.053301983590814 0.6902643440135119
H 18.719710334155934 15.463603415184132 15.088159970066474 -0.3258770375796959
H 19.41822280936968 15.410933003001968 16.568638148385155 -0.33929082298512037
O 3.50196570250917 8.975560963263336 18.043546035438766 0.7125688410770898
H 4.261067173124006 9.419213735218047 18.522459602580835 -0.32709233753740763
H 3.862408842328706 8.510319364987197 17.2269117551702 -0.3535152668961292
O 15.401522690353005 2.7407933846410297 1.252763331433419 0.7028309011574896
H 14.793476201673824 1.9701822324389437 1.4792763913917473 -0.32948370027744167
H 15.614767733081857 3.2571585309811284 2.0713702949249106 -0.3480623985143311
O 13.035983025177092 8.380516663864347 0.4230453057026561 0.6597349272108612
H 13.380839177759611 7.4475108719536625 0.5676915721371875 -0.35658272682757186
H 13.226289414167574 8.650567989836565 21.30021656183331 -0.32453206535038237
O 10.684362322445628 13.327709853912527 8.495215914927684 0.7027148235691083
H 10.753413283689847 12.500556099279933 7.931974237172687 -0.35620756026737577
H 11.29768320392518 14.024438527150577 8.137432720882883 -0.3280254173142656
O 3.1886181501050093 8.096996524000547 9.49576326722669 0.6995355591309167
H 4.093888014855998 8.452373166163369 9.528907885260784 -0.34822871892421947
H 3.1245783746021547 7.242050367373709 9.999851945004453 -0.34188784212606327
O 3.386376202265701 5.090319130083102 10.05968512656445 0.7494284469606862
H 2.8860297189725443 4.2672150067462855 9.86154993356973 -0.3481661747636009
H 4.161642776234595 5.137396463104018 9.419898374691623 -0.35834054705165463
O 11.382429748138362 3.804230007034729 16.779319644202232 0.7075355879179828
H 10.948075621085945 4.418619706579287 17.40921368842477 -0.3575973922592177
H 12.295767649266404 4.119070243185077 16.633284695344404 -0.337472774809925
O 11.599015008913284 2.0648000970518976 14.77117332176976 0.7076032186141532
H 11.592127247420141 2.6960536284275562 15.54395825495564 -0.3624763089168447
H 11.870656162752702 2.551401984617201 13.963529369582883 -0.32769229491863827
O 0.8849222651823573 18.011480667143385 9.269296123826368 0.6851196232455941
H 0.4588614990307776 17.176148045781993 9.02962181189021 -0.31755774197334796
H 1.792840854989601 18.058053785233756 8.924165830279412 -0.35221921096848163
O 5.042180619313084 15.679529912904966 9.097511218382918 0.7032841909513348
H 5.6862559381797215 16.41254417167579 9.19400615865672 -0.3671573809542261
H 5.4647087353208335 14.868077157616092 8.689182751788726 -0.3538386930151872
O 10.021999356240517 7.955622829054468 12.381602633213207 0.6826700245857777
H 10.432869382044919 7.644189926453985 13.244357137729866 -0.3469566382057132
H 9.070560129927346 7.69337118525121 12.364350105739241 -0.3170112504887146
O 1.8894980249458253 5.198101581816693 17.2202246918316 0.670906672693385
H 2.4662214283567385 4.814586077290152 16.522878606687062 -0.33094762851059245
H 1.3087886681847696 5.898441126974837 16.82690446205077 -0.34411429244194647
O 13.687767342549662 9.501163606792993 16.600590678445556 0.6828437761593893
H 14.087578294261201 10.402029366189481 16.790469982514438 -0.34387906446942573
H 13.79960857576581 9.291969742824644 15.653326311430844 -0.3459471785097088
O 8.147609969347902 5.72383225093824 3.250722948836718 0.7304984613674499
H 8.217202615211043 4.830478207568517 2.7866801764831166 -0.3558246790643528
H 7.220453277017102 6.0583256548414335 3.1797582376052698 -0.350643094465399
O 16.570183253355555 6.0421842161631645 12.063883584376459 0.690072124785992
H 16.20707669191543 5.371850073181157 12.689793727747436 -0.33416971226541436
H 17.379440267556742 5.6741466137799685 11.633529335699192 -0.35958377985414103
O 2.520006306258967 15.64054728728716 17.443657975496865 0.692607183314311
H 2.235805282618035 16.217443264750443 18.201939070636687 -0.32566399814196767
H 2.445544751391677 14.677054285006585 17.696415593758413 -0.34624834728115206
O 6.704295281573651 4.6348786101499595 12.69295971703021 0.705940721557047
H 6.376001030554907 3.756789526989869 12.381328388751893 -0.34236788005137386
H 6.985455339192002 5.15846857219093 11.89385287003229 -0.34902636588449465
O 9.302541666223275 16.784898277130903 14.644807047666996 0.6587587520673113
H 9.09219994582725 16.592084420948638 13.70347831852572 -0.34459822707645127
H 9.612155360349101 17.709694684448895 14.765487301340587 -0.33683344912077984
O 4.725972130948729 5.003743901980308 1.9112362191465075 0.6502775410086059
H 5.341679350640399 5.790835782229271 1.9441131558453677 -0.33362067692070174
H 3.7923274683055883 5.308939309532506 1.958094374466649 -0.3063855526329241
O 1.5931428559685181 11.365886555003076 14.662078325092509 0.5602755351694366
H 1.8252379003877115 10.774167362826722 15.411464408899592 -0.31143726477349976
H 1.6913741404465266 10.878398568221721 13.796179222557443 -0.2871667662690748
O 13.470138145954067 10.59146359302855 12.34549167480229 0.6675375435232676
H 13.696210724676707 9.981684481086514 11.610151869005964 -0.35543000672050296
H 12.590590323844806 10.99799691665361 12.14855038229554 -0.33045767959491956
O 13.019964488080271 8.548729115854307 3.0926191593154413 0.6822552228632333
H 12.154634805128788 8.228670270517814 3.5050605031600974 -0.3299084326720565
H 12.969807875393519 8.410636996582115 2.1034281345986545 -0.3330301282544401
O 17.588401931555715 17.47619204951627 11.54231869506634 0.7130969598952079
H 18.205358813130694 17.76886353444248 10.819115865719395 -0.34917434937674996
H 17.201739727354827 16.58547282964054 11.284480708411198 -0.3600557909943257
O 12.52013744666246 17.30988564866976 11.279882378618403 0.687861938366229
H 13.347936098462323 17.353553019811848 10.74944687261275 -0.3377246041516745
H 12.292045216778742 16.36957194275447 11.478999319849425 -0.3379788334718634
O 0.8302063400775604 12.579315191317505 10.222645453351271 0.6441853469642398
H 0.7720398897661723 12.582255051906243 11.203061230496845 -0.3305240925194801
H 21.811134281115457 12.164476054742163 9.844336838467715 -0.32564385337121626
O 6.87784330314413 16.62064454341032 17.162164697238907 0.6617223814825701
H 6.328789870978822 17.425956738166303 17.254910740613266 -0.3316015523088628
H 7.383072128939409 16.66702444238281 16.308112924506357 -0.3462763886194794
O 9.034119785136909 0.8608007305392571 1.329654449036673 0.6137553083322826
H 9.531806850890744 0.8761840603930946 0.45761596497106616 -0.31009695763668854
H 9.585222992630207 0.438531992096951 2.024861188931657 -0.33319812588893705
O 17.26375310655209 1.3447733626271248 5.227910356048858 0.6789895849971854
H 17.990818406591707 1.1940810207796877 4.557610721805037 -0.36309650033114094
H 16.947843246781645 0.48406069346215347 5.61362784667915 -0.3225706282234868
O 13.882867359533922 15.734235786195917 4.766150877241706 0.7095212625152216
H 14.540487355030507 15.850547085191975 4.036703492883972 -0.35621061234000617
H 13.468762407083094 16.59672080023051 4.994386685316098 -0.3557671842860267
O 12.798796890545393 9.264688384717696 6.715945817013534 0.7333575511408021
H 13.372549417270465 8.47545980455216 6.756916644686123 -0.3434966185911653
H 13.20150610241876 9.946726034380468 6.120074765802557 -0.3619554718663166
O 8.299709531956005 12.728702225560221 14.221300218233631 0.658031214125498
H 8.254679721889534 13.069031502897234 15.144491918557716 -0.3558143213498075
H 7.442364945592109 12.921143474034398 13.756881801526768 -0.3493316067984048
O 6.719906459108185 16.15876587399946 1.541276828925826 0.6796889439716232
H 6.817462142901296 16.252089493347793 0.5407108333480736 -0.32147333615652407
H 6.300607762820765 15.253886560586851 1.7484688569056281 -0.3611613997580069
O 16.501278281471784 17.206163403072892 13.94005480828275 0.7100027304396015
H 17.0297490278709 17.30279964178422 13.100800215314957 -0.3559892163709356
H 16.228030702031194 18.094990704226166 14.2783853272724 -0.3514456040504408
O 18.410462827954365 1.7484386030773864 9.633551811948943 0.6703461532117014
H 18.78645583491776 0.913243677211538 9.274209147967408 -0.3412896071814936
H 17.427939099882938 1.759915034962104 9.453510949756236 -0.35887751562148906
O 2.626045794874891 3.2622217553655246 7.196330381344594 0.680100567599454
H 1.852515470877393 3.7904540998386076 6.8589635249252385 -0.3437363154261669
H 2.5493049677979656 3.1177386916803287 8.186652581679585 -0.33668056174042615
O 11.942645584420506 16.124109242140666 0.3199225523114338 0.6853514881203893
H 12.011966231355885 15.20098723574008 0.6906017541455747 -0.36842340353598857
H 11.343534615271421 16.103629089987546 21.34867115312403 -0.32639140645340836
O 8.216551174508183 10.025301277878778 13.728329088203916 0.6746637667719018
H 8.617230886034806 10.009132225672492 12.80026873479846 -0.3466983892524197
H 8.31263857475712 10.921855571114776 14.108219097245831 -0.35518916623768193
O 9.15768188552741 9.101721864348704 2.9075394557633327 0.7064098216890864
H 9.787497015487267 9.492295442471063 2.2471899454798687 -0.35474609956925385
H 9.562384150696863 8.267378902165031 3.3303417394055783 -0.34156282361104706
O 15.040245435500806 16.071065912466054 0.43578650384407386 0.6388476451303298
H 14.118358410599948 16.42970377287 0.5141684866099059 -0.326784110762511
H 15.425914999088954 16.280274280450897 21.384971763555924 -0.34257348667054455
O 3.7219784414936194 12.881018720548225 14.901263137692988 0.7190806978442836
H 3.603437078641254 13.799473095429168 14.566050655402506 -0.34991726296918413
H 2.8765771303925107 12.355341607719856 14.77289493679817 -0.3568934061362917
O 16.14006504169372 12.92280095041102 12.889155213752552 0.6849721533035789
H 16.745266421130577 12.949415890827007 13.67711089755207 -0.3351872834682119
H 15.401244525378972 13.555739539617747 13.024428586955624 -0.3448421910626489
O 10.391686461977221 10.983176232397238 6.959215007056003 0.6839086346076897
H 9.683708718139894 10.49614769332509 7.516701409635538 -0.3393717247061414
H 10.96508080132875 10.311242207827794 6.517875594022695 -0.3344250736491329
O 10.134929520289703 2.3584406805583495 9.710915011040177 0.6893460710257999
H 10.04141628217727 1.9907646159140457 8.78330553950079 -0.34658984355958944
H 10.112893737290939 1.6099167863718042 10.364225947813551 -0.33100444863493994
O 5.905386509267076 14.86893448612705 4.9069700570412 0.6621367392839232
H 6.3326526353802555 14.289986887299467 4.206019480209263 -0.340600535309455
H 5.467316705442297 15.653558583250033 4.477165004479294 -0.3345677110149087
O 17.090259297994127 3.848683903417381 13.808947299188732 0.7068536923348301
H 17.82093091272402 4.5443140002977955 13.836841758986912 -0.33983689317901433
H 17.352209442439218 3.107745497020663 13.225663329332802 -0.36084491795946305
O 2.553263124865736 13.48421005271016 2.8952400988569473 0.7071878512618177
H 1.5821408166396647 13.491212594279348 2.625310561209141 -0.3537677586357101
H 2.6529536409520156 14.012994781974838 3.732081470879566 -0.359643115017407
O 1.052319292222864 10.131804602872233 17.260767540693816 0.6643583944577287
H 0.2891309078501024 9.795429745341389 17.785727623189274 -0.302202455492142
H 1.892621437410546 9.818699304911323 17.667801693855164 -0.3512244537741497
O 6.71643384484059 2.0275863412320727 14.89421942555234 0.6703784370380887
H 7.622932966623032 1.8754075323386457 14.469655133069141 -0.330696540141322
H 6.807108198573108 2.0753702774123313 15.858396905602868 -0.3268975762317533
O 14.402233711265465 8.559282060670874 13.98004885085365 0.7002153523669268
H 13.836584637284506 9.079744729443247 13.368498868174337 -0.3467957189741291
H 15.348902073696046 8.665400851722904 13.727679043122684 -0.34831712244028745
O 11.827753055645834 13.352697462700778 1.1918605052619016 0.7375148761473627
H 10.833760394485125 13.230065979880392 1.2141866889419957 -0.37839306658445315
H 12.161156336342964 13.525839030266011 2.1230910410059325 -0.34193174613161137
O 6.1264056852705755 8.419458213907284 14.312576177202706 0.6874185623586193
H 6.707018615239827 9.223105767196042 14.150774876184295 -0.3602412671810331
H 6.71418920752998 7.628515083811553 14.332984376424381 -0.33762311645192067
O 14.932297691069202 17.670086962725705 9.595707877701082 0.6387452800264795
H 15.270761146461751 18.3238480670708 8.919051274243513 -0.3294364885708815
H 15.571741705583905 17.60085333174126 10.334637203739595 -0.31529916748714015
O 7.162787643550397 5.649324024317444 17.085940228318613 0.6485864562571386
H 7.365568809968447 6.294803914289024 17.822617405645076 -0.3483092502276819
H 7.730629375712377 4.839338918319569 17.16845398397428 -0.33329246360059495
O 14.500636101956982 12.196799557553 16.333808348903652 0.6884979647888994
H 14.44132177795901 12.110268699674139 17.31155319132478 -0.36548963543875057
H 15.460524794179655 12.131629131384985 16.05360783766777 -0.3393971398826251
O 3.9042403701919417 17.40804995645015 15.601677517427982 0.6589632103555205
H 2.9920416493396194 17.812027867911755 15.587284914415452 -0.35123268874985014
H 3.838923701929456 16.48897499252975 15.919204238086305 -0.36618932709435015
O 16.74502743634079 8.824655670394534 12.540348061825368 0.6954234909075465
H 16.47673619671892 7.9515835055703175 12.165476804056931 -0.3525939815124196
H 16.737368771725016 9.502013472117852 11.825055165638991 -0.3582230278841648
O 12.250390274187868 3.2501696167651635 4.489163262779672 0.6982536961450005
H 12.89106741161877 2.5332155508545573 4.410920205079463 -0.35607487191057485
H 12.441331305293723 3.7661609985216273 5.323090621187662 -0.34819321795807856
O 5.945112207435401 7.446232073463364 6.5202253995259145 0.7004163905569651
H 6.427284571164835 8.292449951337362 6.351028609893084 -0.3385636730605387
H 5.0547022903686045 7.47782666392918 6.04156145666331 -0.33436329475215587
O 17.768694318101925 3.4239254805370747 16.416872764054265 0.711181210049685
H 17.602064975858866 3.726844251750726 15.488571099441579 -0.3371352902032876
H 16.934583419207215 3.0492459017755777 16.7882925077401 -0.33613771471401654
O 17.300999917885147 9.3363060838533 15.173112606696384 0.6924180141060052
H 17.68876658797848 10.247435806454124 15.311179573037018 -0.3455772625705905
H 17.211694319671864 9.191273575844624 14.174647576331333 -0.3548856452017891
O 8.587558769141658 13.741473811849136 0.16041264777104586 0.6559720209881323
H 8.121623443921226 13.889889675452247 1.0442988464172642 -0.3366070804810367
H 9.019307489855674 14.594615989136635 21.70973547813624 -0.30847721794533134
O 6.61075017018581 17.90201291845199 9.532678451346703 0.6677030895302538
H 6.132036528774915 18.781018150759696 9.402146007763708 -0.3384106798230976
H 7.60766408782556 18.020640698357468 9.44893040730521 -0.33560179032727033
O 8.58790858029501 9.558684690940192 8.60738608064775 0.7124095085970632
H 9.131834888753199 8.873441023857621 9.085366313047944 -0.3522873517923778
H 8.278614492209629 10.241085461688307 9.253333333540667 -0.3579109725549916
O 10.833592724366637 9.84010470566756 0.8675889566366825 0.6710370950676756
H 10.582737585007038 10.352465556135542 0.05764756180380406 -0.3293038523554589
H 11.647097223116301 9.282411738118372 0.6690953967730577 -0.32993331559104866
O 18.61418189217248 15.693320150234072 8.506217880316484 0.6442395464485369
H 17.904539087664094 15.57599709139142 7.789966375463397 -0.33541991026159157
H 18.633282326497945 14.91000563897288 9.097418888699242 -0.34569072627348507
O 2.210604338184956 13.138842479946279 18.438134219076492 0.640901376757844
H 1.56255501037318 12.414485480177882 18.227108126125227 -0.3393683008880658
H 2.250079264476158 13.27038911036044 19.412767227307164 -0.32856199906055805
O 0.7864937595927709 12.3997026930073 6.529287619512477 0.6364185184330378
H 0.8016208035137765 11.943676440145964 7.4089937369929295 -0.3267029122908637
H 1.6094492338777968 12.113627610666505 6.016530941488519 -0.32607974785970895
O 6.721817849929063 13.916585358260184 16.240306338124224 0.7171060569330958
H 5.952834106612459 13.39613538986062 16.610758303586483 -0.3513522589355318
H 6.683021262036758 14.8491422415821 16.57999800217415 -0.3294852802807616
O 18.2434552842386 1.9219489645251633 12.275259778203752 0.7050055044455927
H 18.194267511626204 1.0184034586971038 12.722758110012922 -0.32069933805889217
H 18.261276314933905 1.8079756516235252 11.27909426217206 -0.36539110208533976
O 4.280408886927205 4.234870595039139 5.199791009787249 0.7116701915491355
H 4.569239440224381 3.5177211526560317 4.56921949357325 -0.34734409942018407
H 3.8889350850312194 3.8253305299129345 6.024856736795486 -0.34139279854064586
O 17.047689182287595 14.87260394936431 11.035505051805917 0.6747152633747353
H 16.124101083458 14.609215968818262 10.787044174296893 -0.34543723152590633
H 17.320599434089964 14.376544354439693 11.864719946475779 -0.3444425768182745
O 3.174114819088956 5.470677784862726 12.803000767013332 0.7031658978982112
H 3.5612224758626017 4.88019662672388 13.5137876657116 -0.3309127377704971
H 3.5704730523478028 5.215737795283763 11.93525652995523 -0.35787538488808923
O 8.115321655849193 15.858686015079533 6.873493992519487 0.6589374921208639
H 8.433914714122995 15.976296842861892 5.929889203612002 -0.3228319317934225
H 7.330526983785826 15.233587134166747 6.885084520422026 -0.35004122314210584
O 14.239595610428722 2.140461914897148 11.116371385777144 0.6654738364396007
H 14.747846341040667 1.5044866857418118 11.683699702580379 -0.31689920396126325
H 13.746599516283636 2.7687796335573642 11.738735036550981 -0.3564420554089287
O 10.015933773483141 0.33383219202824 11.540505982565863 0.6270055178164853
H 9.39138820965247 21.423329861709103 11.228770338062953 -0.3590530646795085
H 10.925514398033508 21.824546970219977 11.53277259424005 -0.3227360771751844
O 7.698114454658374 13.300610626502086 3.00550991251076 0.6757563185094781
H 7.237635243420115 12.44386612633825 3.1772559922284764 -0.3542466976163212
H 8.601284434700363 13.261446166941463 3.4144369679625957 -0.3255484349961252
O 6.181107391398866 15.669714759317044 12.839616934441803 0.716330040273256
H 6.131453601831919 16.489057430518937 13.415250330329247 -0.35461478600520924
H 7.076984317058387 15.638596497823592 12.384956553949568 -0.34110499850333775
O 13.520622175505533 0.5225154136560236 1.6872349444533152 0.6600086158337621
H 13.874578653959798 0.10441455797313101 0.839298541582164 -0.34974742195236064
H 12.638806597084454 0.15350066457126604 1.8755681156535946 -0.3215908195137417
O 13.00080448649373 4.532610527866347 6.908635866563174 0.6901885459894377
H 12.4100608458627 5.33984038143206 6.958471506545772 -0.34361869391994393
H 13.152166219165457 4.188289329512 7.816948174394998 -0.337661065697745
O 15.930116782387609 2.210333905782856 8.823868315969753 0.661130140991137
H 15.08898317977786 2.2033274130421994 9.358154110106492 -0.347438969135642
H 15.944276359360865 3.042625194502065 8.247220799768156 -0.33628621639584677
O 0.3891789493264933 10.766669903435144 2.998074129678366 0.617849370564425
H 1.381512849014323 10.653169180643403 2.9141357610520693 -0.32495223006972485
H 21.80934754945252 9.910188140402502 3.3217933857792823 -0.2934098845594263
O 8.747960898846635 16.461015999701246 3.3685682245676474 0.7135374812800714
H 7.980323174799615 16.10788338521802 2.8268650294387974 -0.35486831117720674
H 8.404729327320515 17.17232163899717 3.9988098100366685 -0.3638019004540878
O 17.552653447182788 6.070780945289486 20.93462813942606 0.703848825691523
H 17.43672012284459 5.9447438631914915 19.947352807409715 -0.3736082154345448
H 17.257788113823576 5.276722865908886 21.42513440745753 -0.31161799483483255
O 6.058498356395853 9.636521589745845 19.854502461431732 0.6936240208183388
H 6.151396599652417 10.475734479093521 19.30074228386318 -0.3525682682184105
H 6.525920426208089 9.770636379022623 20.722715519602694 -0.33689853062451414
O 18.417204799799975 17.672797454531846 0.3782968738094259 0.6531958692927127
H 18.955615768835848 17.38941312494045 1.1998712491435137 -0.35061916304091023
H 18.7335474326597 18.564561768794682 0.08752973530602949 -0.30236809671783205
O 0.2712672611318144 15.965282898118849 19.78776488662193 0.641626963341313
H 0.0897669247655917 14.9984221270472 20.009476442228813 -0.31894754861032726
H 21.7625775782568 16.546906410833312 20.540654354379782 -0.31823204359775625
O 16.409645750931908 11.086591988953007 1.1037498498645426 0.6186217327348578
H 17.261184935316574 11.11099593181435 0.5786758819670776 -0.31238809528412226
H 16.542773345295792 11.555165805269176 2.007644897703748 -0.31580999294399004
O 15.251491769167782 9.98830253416462 20.524469867203866 0.6545753422668383
H 14.627771943346028 9.226244606753424 20.62057979609774 -0.3147789922483045
H 15.754690455184726 10.184060520751013 21.383441230522706 -0.38081107320308516
O 5.976567323417445 7.29425993832952 21.32626341537494 0.6442088267188506
H 6.233625062185032 7.971644191912917 20.65400205784518 -0.34843268224420854
H 5.203229239198374 7.636644894409793 0.0387427283647102 -0.3186429361793661
O 8.651002373129664 3.4737400827903704 20.567771225208418 0.6076488880478692
H 9.251577703199308 4.101185073704199 20.081677488626944 -0.32831602450256536
H 8.847675716116804 2.541211533484301 20.290894080381886 -0.29099306706831507
O 10.084352876495783 14.561937524971432 1.5650271657283419 0.6640993041930416
H 9.613243667877088 15.271203570133682 1.0516417141611754 -0.3359291722798603
H 10.036999578864185 14.763080154377587 2.5563139327792737 -0.31473084439222865
O 3.214761869412282 9.431147492306025 21.039718960444752 0.6376370730542442
H 4.021202079589538 9.834627678500896 20.637242733198896 -0.32760562403387994
H 2.957264565907032 8.604100647236745 20.520465772376625 -0.30773442415743424
O 16.323870158517256 13.772953301467103 19.430998875068454 0.7040208485470822
H 16.00331407504513 14.691316017645928 19.332618729877357 -0.3433309935001071
H 15.562015283539262 13.144661911834328 19.31173646591168 -0.3434794053043748
O 4.63583208718945 17.434739865875073 0.01980242377741589 0.6478354800074735
H 4.958652619698397 17.816799529746437 0.8916793768690334 -0.3473110044230453
H 5.4173720962506575 17.346476598523672 21.20136799046026 -0.31654497751318333
O 6.143649553400883 1.2250042912592165 19.792055840220034 0.6755818799092932
H 7.09645543753248 0.9998942448210772 19.866539462793895 -0.31624027004990274
H 5.836163949564338 1.0605438604676518 18.877169427100366 -0.33283481284705896
O 14.340546259859533 11.88197580033006 19.03265559918065 0.7164771074666412
H 14.661683978109567 11.122314224682931 19.58953574735997 -0.37966749913097053
H 13.433645325801518 12.163602531717414 19.33748078235304 -0.3383233055928411
O 2.9678227919655664 0.34753627454167424 20.3282302857823 0.6206549896670985
H 3.4516029962443278 1.1788496998558806 20.119126520712427 -0.32131098394556623
H 3.5652168353742297 21.53622258992457 20.775340325026203 -0.33283230211521087
O 10.32393609742161 5.489323641448327 18.77678450896705 0.6589035180309661
H 9.934492902434028 6.2960220936507705 18.395067661374934 -0.3494880385185136
H 10.962947951500585 5.725410066441693 19.47932885513244 -0.3282364549358281
O 18.567179723479278 8.326645013433373 0.5643716411620472 0.6392140134848976
H 18.984534658394935 7.699255117275268 1.2086798263216343 -0.3254628960817144
H 18.175091076043344 7.803352753327147 21.625581892752376 -0.33200212668596185
O 4.876167106521991 13.853364238505502 20.35367784382583 0.6979719349329176
H 3.9993106014779767 13.711734907817087 20.805164458171934 -0.3578722299105619
H 4.706731732895413 14.103345462472195 19.421458436590232 -0.31485089478758355
O 13.901817728653961 5.748572002252452 19.408396019208915 0.6500619658658806
H 13.360051754109023 5.54822203147863 20.210883309812758 -0.3494297654774323
H 14.797062217408174 5.340728185918685 19.496169487061465 -0.33231626925759583
O 15.818129391462406 6.394197339585085 1.5099807362084117 0.6295757501660741
H 15.497183732925226 7.00679698084661 2.2473664188605564 -0.3356566045550946
H 16.325921241970285 6.892297067179862 0.8372629919274832 -0.311893371030621
O 15.397297737423763 2.741352135666753 19.86858406248448 0.6775848503533108
H 14.7938329930444 1.9836656319734471 20.116277544649765 -0.3532862959452878
H 15.617554145102194 3.243343514947925 20.695543156056647 -0.34675292440045713
O 13.0340616935617 8.384860121489735 19.04277563747738 0.6982082027268328
H 13.369217361543626 7.480650402137642 19.199305064452922 -0.3355019639347092
H 13.20917056952527 8.638345765954835 18.097405085475607 -0.359026152108192
O 8.14759271393331 5.720080569120581 0.03809538336584212 0.6978752453391053
H 8.226335643651273 4.842583081788476 21.427690668170726 -0.3417032687758139
H 7.209664827449703 6.038675729439473 21.794789722142276 -0.3273790510008282
O 4.725115107896296 4.999413791058899 20.526230057086277 0.6432177910855206
H 5.320443123592526 5.787765141605677 20.567629044377643 -0.33005334890231797
H 3.7763299562932504 5.30247836198733 20.56265696402658 -0.2904080979166177
O 17.26128620516277 1.3551017443338573 2.020863698846145 0.6222209435126453
H 17.972851629374283 1.1613215475984375 1.3428174094406555 -0.31210492450271676
H 16.947409657812003 0.45864585221551657 2.4241320518159273 -0.29835769592075045
O 6.721252635723901 16.157056090718683 20.163554521035053 0.691070708674312
H 6.815453224303159 16.251813843977274 19.17330489858371 -0.36122496156485795
H 6.3255001316181465 15.271841656082806 20.365649400806223 -0.34644484753985283
O 11.942827003692694 16.117665083443246 18.93346213886118 0.6986607557031181
H 11.994158510692907 15.202027465724214 19.307139654995204 -0.32455139871312555
H 11.34743351557566 16.14573854771481 18.152385524039808 -0.35264921900292867
O 9.158419908560141 9.104027074111416 21.53271340608852 0.6542741176942748
H 9.779629758887976 9.45590820057197 20.846766215697578 -0.327468412126828
H 9.557623527305243 8.273408825355611 0.0922511300445083 -0.31018060186479
O 15.042011047160228 16.07571037136255 19.057446989802948 0.6653215715140188
H 14.120372741582125 16.451020342885126 19.131847090439802 -0.3257496494541353
H 15.407950758037206 16.27238581285257 18.164030967907006 -0.3483717370530499
O 2.5555046032510216 13.476074274175408 21.52189223733907 0.6546653358731227
H 1.5849001987076994 13.495546536397775 21.260603889609378 -0.35111007463251565
H 2.6599239838193007 14.010080857622391 0.5418518992404222 -0.3397141320345649
O 0.7548320829011044 3.4448098273184637 18.94941310133599 0.637252750901756
H 21.64540397029678 3.152978208825638 18.66757714823156 -0.3024949555556524
H 1.0641757586950802 4.20701523521472 18.396902160663572 -0.3381768100619251
O 11.830463397550702 13.354962625368206 19.81224914829235 0.6624640462213973
H 10.872276724112753 13.24001205394577 19.83988150103793 -0.33966700667804617
H 12.173347811759184 13.494424214642043 20.733077591459587 -0.3473432974057993
O 8.590575844155083 13.736997847457616 18.778259056094925 0.6493044796727006
H 8.110423178795193 13.88641185795442 19.65712286107558 -0.31486202018487297
H 9.032057942649375 14.572909754610409 18.496551119496942 -0.33961876501056265
O 10.828523427655194 9.840528787271621 19.488801482233253 0.7113395495299457
H 10.607739814827026 10.372923906625914 18.690845650281094 -0.34087249725272084
H 11.636155120881684 9.280441207812592 19.307093338677774 -0.3473103864018915
O 13.516035033699506 0.5231099390999036 20.30405823733239 0.660785050637875
H 13.885810286615012 0.11287477950776972 19.492742572149616 -0.3367690915107119
H 12.635700360033276 0.14289544231910734 20.508708567981298 -0.3166324965165309
O 0.3889834146535576 10.76845850906831 21.623539243737667 0.6186999628073018
H 1.3680153655849154 10.663812660979527 21.538017650963184 -0.3214834810487357
H 21.826701439044253 9.922761332253755 0.10959771352912055 -0.2973545766553337
O 8.74964953758723 16.460583361796886 0.16191425771064277 0.6732834374394985
H 7.9843030613795 16.131402546989328 21.444334601647757 -0.3458472919991128
H 8.43223898260143 17.169285913740357 0.7879982914138575 -0.3447031388367734
O 4.375849165427742 0.7084135607909497 14.991592256073226 0.6913388892062802
H 5.199702513775925 0.1720745411691689 15.08215199023812 -0.3457879584938266
H 3.5772542829430556 0.12841842272544446 15.036084014454646 -0.3185725477295197
O 15.942689670855634 19.762452298797346 14.802484750798078 0.6651245688066645
H 15.748272121980886 20.42068454566578 14.08472849692775 -0.31667086585732884
H 15.894023874399045 20.21914158263186 15.680109567412241 -0.3528783284062119
O 8.094785686337516 18.655096907291135 5.021084121435881 0.7107163915871642
H 8.498271707392727 19.575450252690782 4.955580487485026 -0.34591331963808447
H 7.086707662396162 18.73353923196987 5.059963965959307 -0.36428837910940415
O 12.808418660794011 0.24191711503245092 9.442433021733958 0.6847992232688416
H 11.954718833660916 21.587790505647767 9.292692565203815 -0.3208425793712747
H 13.42742059035646 21.537969395968226 9.991987840024628 -0.353983788551122
O 5.499111065860699 20.58151317161122 8.850838980287682 0.7095296563529834
H 5.4557921911291265 20.53529276509933 9.828821388999513 -0.33795109181437577
H 5.496780463967796 21.524151975759857 8.56292885726985 -0.3518956653148968
O 2.020960001471108 21.475597683173064 14.983900307547687 0.6264115267826664
H 1.2533934170269523 0.23247482675603018 14.852681338713163 -0.3263247139777249
H 1.9090478248335438 20.99854961168348 15.837702634560735 -0.3364187240200941
O 13.998926561914697 19.69356583133973 4.257146156120178 0.6583099167626862
H 13.742580159240465 19.32694226412895 3.388231452455845 -0.3512556271450884
H 14.984065633342663 19.839826962907683 4.297912734335956 -0.3312977688357164
O 15.470681299748238 20.839640244337133 17.292989852675596 0.6796361874434584
H 15.418798435631542 21.21751382633074 18.202729036488254 -0.36169456005418266
H 14.740388552995134 20.15560103219638 17.161739170854275 -0.32413493937788207
O 6.1393849586231255 19.832996482233682 1.167431355332512 0.6362304161932126
H 7.108275166628192 19.61887326390316 1.2218544907194906 -0.3307252776061457
H 5.833574292419092 19.669059633444665 0.253186059884123 -0.31640011841631
O 7.808044029604023 21.2644888985926 17.495952793875524 0.6475568375350846
H 8.496879385306842 20.654096836641692 17.93919851671565 -0.3143420504155534
H 7.093693860810426 21.462577312238018 18.130842144611023 -0.3266440693617182
O 5.392481340465953 19.265736262391354 5.118507640490563 0.7658267161327919
H 4.571711693186074 19.258585783455953 5.700747294170158 -0.35169347745508706
H 5.435206945219966 20.09427310050976 4.58355690235753 -0.38878367205443176
O 5.615628169491428 20.839877306246713 11.472857917388211 0.6685586835073014
H 5.987027851928923 20.01663076145897 11.83588974192552 -0.3202785124461728
H 4.727920935529393 21.0241546103308 11.898841341828117 -0.35357928772000036
O 10.164898977186594 19.011268939657953 7.5332170104478475 0.7019018942540685
H 9.432733637104132 19.05788000946252 6.837528988535704 -0.3252496496873275
H 9.930049685576112 18.32180851394923 8.223205748278101 -0.33836778034258475
O 5.267902139193851 21.182955610202573 3.2790069254820513 0.6688737669821867
H 5.5350397669501366 20.579985307253164 2.5432252396153614 -0.3327989038496214
H 5.266662009775569 0.2930167944824327 2.9747625463788046 -0.3334572152242812
O 9.146501914315714 19.513415390518187 14.025264846030453 0.692685384744764
H 9.417672268649735 19.320023186408793 13.083421837390887 -0.3419525027123661
H 9.864591924903502 20.09478979789016 14.431817506601732 -0.3231316360987838
O 12.73799723199061 0.6510213328158782 12.62176000308864 0.6617963086994774
H 12.964927948647635 1.3736803798886128 13.249774618604423 -0.34370188755866615
H 11.853861910123179 0.8269136411960271 12.216110685680828 -0.33924735883385815
O 10.12861754362325 19.668697803964672 17.699051447928817 0.6594675850936653
H 10.190855185186862 20.518147788709193 17.18930681083258 -0.2974373935959481
H 10.445980564647218 18.920305705739548 17.145276501142753 -0.364715786168748
O 5.039119774836905 19.1241000282589 17.399850538544346 0.6882355842275016
H 4.613090158752766 18.54615916774874 16.713206928898977 -0.3590870231757123
H 4.377122467060173 19.809437128390545 17.729996056197166 -0.3266033578482863
O 3.066034173041518 20.750539229461264 12.312650591302813 0.6731508832376116
H 2.8305875669980014 21.12123481023716 13.202739577790119 -0.33111777274990606
H 2.7767413375093866 19.82845190559072 12.247233752871377 -0.3555596799202675
O 3.0716846543091143 19.248151708533516 6.176613889781875 0.6373001990116789
H 2.9729026721259504 20.179271345696677 6.506635951773727 -0.3428782209962513
H 3.0141632103761706 18.612264039031405 6.934222862488247 -0.3405907936536917
O 15.395690492007324 21.362908647713134 1.2503713280680882 0.6554058303206407
H 14.819580323008054 20.612254640752408 1.4752613627086182 -0.3308943400147817
H 15.620316313067427 0.049430623617315844 2.086591012318381 -0.33516742988649273
O 11.60188365480385 20.691131419138493 14.767942194357982 0.6316874639532335
H 11.594664896358298 21.340283356198086 15.542430484413593 -0.3087782089244999
H 11.88945986926026 21.157993581601648 13.947600797873854 -0.33218417266298184
O 9.030147091110344 19.481907017028195 1.3311982196527967 0.6378131704687089
H 9.550784145083899 19.494417186736477 0.4860442487128597 -0.2941277954204612
H 9.608207223493778 19.083071217693945 2.0442863982407333 -0.3469221156788772
O 17.26266566984406 19.96595386557424 5.229381930862157 0.6975700616319189
H 17.982556995725254 19.809599904326635 4.5811599361741795 -0.3383770662263631
H 16.96964130457849 19.10732955485986 5.6002677998741675 -0.34957138721540193
O 18.41068827479554 20.37155958979816 9.631747084647607 0.7279469480284106
H 18.82006215892863 19.51789877336576 9.286389630330461 -0.36591287018997887
H 17.434294590607443 20.395241639332077 9.436935492253681 -0.3586384081431496
O 6.7243057762255765 20.648001309788068 14.891114362216229 0.6812923066201506
H 7.605453143226673 20.49817852302819 14.48293501638182 -0.3493129201594899
H 6.7995538631753405 20.701447727553315 15.893406371852674 -0.3338697366730099
O 12.24985793838691 0.04204810333654106 4.492948455774212 0.7010917813168129
H 12.8967158444428 21.12685211425524 4.387619370599608 -0.3187062637572109
H 12.448829411978535 0.5352446415019754 5.314959838296933 -0.35711028620050145
O 17.76980260748976 0.2096544945939006 16.422422516336894 0.6941450354325474
H 17.585887595210252 0.5106651676917401 15.507439531063916 -0.32662796361474644
H 16.936978314366627 21.6582579607325 16.79516648768076 -0.34225654776482917
O 18.237581802017175 20.54064003739015 12.271924680315736 0.6989489384743077
H 18.21285123186156 19.62748201282899 12.727258239351178 -0.30519725991173063
H 18.273519047062575 20.432536978174696 11.280286377317395 -0.35411695530530385
O 14.24379078701184 20.762175690681378 11.124681537250936 0.6690650496135637
H 14.746597028001919 20.14624843993917 11.666108794877713 -0.3339288566866462
H 13.75001909902533 21.386027125086844 11.70559402463661 -0.35037029072228953
O 10.008397270732951 18.961018411872946 11.540352259106648 0.6671171085191361
H 9.375664553219085 18.24915686592152 11.224207260624683 -0.34187170306237924
H 10.923759726975517 18.603856199212785 11.539841788868381 -0.3518695733398177
O 13.52346000461139 19.13892590058947 1.6823722092619762 0.6678210017717365
H 13.874411359794571 18.734418301122975 0.8463217702608573 -0.3247668062547441
H 12.61064121420801 18.758487958531667 1.8610832272609812 -0.3546030083188333
O 13.000679352726609 1.3199953636013388 6.911956022292006 0.6551424144318547
H 12.42477885579442 2.0985329645405497 6.932828243501702 -0.31850883031584565
H 13.134288068111555 0.982205908826925 7.832954024529538 -0.33156462835570444
O 15.926761533094604 20.83287813444793 8.817580821529596 0.6560331123917384
H 15.088312131361484 20.831266517809862 9.355973423980661 -0.3405186310775681
H 15.965912255727153 21.644869798928173 8.274728876417553 -0.33661351032369646
O 8.649513693441367 0.2714032576639166 20.56998405455642 0.6029878726287805
H 9.246907462086813 0.9092012718006423 20.100899123403227 -0.3089367168735099
H 8.839644507625819 21.17068897918768 20.25760948042621 -0.3159007708160644
O 6.139199485132337 19.838069002500244 19.7955201564154 0.666835501288805
H 7.096621766041088 19.623362621550317 19.850732841094032 -0.2961815227644108
H 5.831869532899787 19.66390875632176 18.84881434909959 -0.3502223900672534
O 2.9703052889031687 18.970890722452104 20.332790189956228 0.6609036989622314
H 3.462903243053792 19.80564925547213 20.12643244823457 -0.3056864488136525
H 3.585763147933805 18.320984173743472 20.78516051074322 -0.3415069643849823
O 15.405683086560336 21.36497634611258 19.868211083112726 0.6673340550074212
H 14.790454808816014 20.611224370497965 20.096845165294383 -0.34386056519472674
H 15.607944925144917 0.05929804566397186 20.70897250322762 -0.359569465460319
O 17.264381411378306 19.96652824873906 2.0223635422510253 0.6337989545643836
H 17.97384685924973 19.801320550130885 1.3669212957440213 -0.3122582892163016
H 16.968396256769832 19.106788814056703 2.3932271416920905 -0.31913662581337376
O 0.7447395178625665 0.23814447123856372 18.950067060718084 0.6052941636495035
H 21.667754585538624 21.795126025991113 18.665219747241604 -0.30389389122961397
H 1.0593527430345981 1.01399286244744 18.394911552513115 -0.298895249158901
O 13.51870348890068 19.136752809248602 20.29561243379612 0.6572273074058259
H 13.883155043614785 18.732377888199274 19.46583256353843 -0.3308323426152645
H 12.623847524816405 18.77024712018163 20.51935946899763 -0.3370878801420514
O 20.91960592438296 6.280283447230615 1.1278348792406307 0.6129267245959058
H 19.98935629616067 6.266949600261839 1.4877888458294595 -0.3099462895189605
H 20.933480434984283 5.88022401540135 0.22443590964594926 -0.311769942725186
O 20.869457794190147 2.7555458190722883 9.961673551140677 0.7461707370858113
H 21.225886645877992 2.5679683810007474 10.894768753051691 -0.345175552670109
H 19.98763237550187 2.3167723181788284 9.816198799829376 -0.3494141908685462
O 18.80859815767213 3.6844219985022675 6.46805974315096 0.6440495254126208
H 18.002421111875694 4.1161758900172645 6.873489570342929 -0.3195755785130745
H 18.540942720969415 2.941209429165831 5.836971880478151 -0.34713205408409675
O 0.1464721710550581 14.35325576951339 10.611875510116445 0.6616759235173948
H 21.193170602149728 14.054503720893143 10.072833596686896 -0.2985140896154347
H 0.6846447000458992 14.937393522196995 10.029575421194531 -0.3356000669525394
O 20.929683873017606 17.130911149828858 4.826317798176126 0.6998699560743109
H 21.282496127836172 17.919708570520505 5.371750062037523 -0.3595044097925165
H 21.36182062051279 17.123459101715213 3.9089173955564505 -0.31943615551458115
O 20.921919053246405 14.34655311665439 5.381483402525821 0.6674994321779639
H 20.66521246561151 15.297611867799983 5.385793445985981 -0.3303429584127119
H 20.197866797317886 13.804390499112424 5.826344780437291 -0.33117466325317524
O 21.020286919434234 10.911186255288511 8.861393274302458 0.6832280040337606
H 21.165855849225913 10.099375780733018 9.386486800911923 -0.3257506985364135
H 20.479916497976873 11.54596689202575 9.393709609156023 -0.3479236056025884
O 19.84082006095853 6.43005950130208 5.633524239836133 0.6679195032320591
H 19.38259026971993 5.559565639099955 5.8093889240319765 -0.33502469006296187
H 19.831373629723757 6.9701736154223815 6.474523548596256 -0.341489512874942
O 19.75766787779244 7.3667894484142975 15.969677292500412 0.6548109912150792
H 20.642699446389404 7.265226635661403 16.412580591722925 -0.3284089744505543
H 19.603442968928004 8.34059640706292 15.748920242949287 -0.35534471350665287
O 20.59061770881478 9.761572012936595 12.63811337874771 0.6767224103681446
H 21.490426865317893 9.321380578566991 12.50194640212144 -0.36156550397901144
H 19.86819677620296 9.118336878465186 12.452392374010218 -0.3203965338663025
O 19.38219726590898 8.107506492345708 7.889669044605073 0.6839737123911735
H 20.36558284044572 7.994447543253935 7.977190320471014 -0.35729081804872254
H 19.1320197723107 9.04996897646145 8.077498122024245 -0.33750276407328084
O 19.923129488834103 18.21429362639288 15.713280062161118 0.6776027504697275
H 19.826305431949965 18.088850445196734 16.691405546236226 -0.36771077708567157
H 19.071823755323592 18.565486234546643 15.349329952706455 -0.31009726447787467
O 20.63671778365235 2.8506282895781827 14.987118960385622 0.6629847256826444
H 19.827502650521684 3.44665820692867 14.867067454864968 -0.34289304245707664
H 20.543492133949915 2.377026500844447 15.850687027538992 -0.3270171810152024
O 0.6135899239278199 7.00182973283583 4.801197221096704 0.6948253359590515
H 1.0814741834440784 6.070541552694454 4.796015240944409 -0.33140012897908544
H 21.49808376724427 6.885384633282098 5.105808390555657 -0.33202030229091006
O 19.40087262223454 5.562392289519054 13.864053040403729 0.72114785045442
H 20.3025743479247 5.530360066542861 13.455280027969765 -0.3585361229599072
H 19.34048974236277 6.286638139407079 14.525902314494168 -0.3524293919889201
O 0.887182769547663 8.128648716224582 12.51071170938244 0.6549238426305637
H 1.7467814721874404 8.254615044665416 13.017377029582486 -0.3366299272328912
H 0.4695813018339006 7.2604448573332965 12.774903713745708 -0.33238950622852415
O 19.26227315195551 15.638568449473057 13.317820901586236 0.6351077432376764
H 18.794612479692347 16.438734883029333 12.975409327422868 -0.3343596916581977
H 20.23334298395229 15.835830153506267 13.387439346399391 -0.3445951425915885
O 21.694118379186715 2.1250958058620224 12.31335435873457 0.6366547620583196
H 21.455701509645326 2.5030737927470104 13.199097737917027 -0.3303413083036104
H 21.40005591863007 1.1975750753643548 12.230759541333594 -0.3397463755702418
O 18.994979959835007 13.09985367984146 12.818507272933683 0.7137416139751629
H 19.5165676707875 12.624638466497762 13.512154920730076 -0.34053729983720016
H 19.229062540613718 14.07998014509481 12.88237469134299 -0.35815756783916464
O 21.811085900201515 8.10026208644406 9.499099870927974 0.627966067840422
H 0.9155264546657411 8.459803773911096 9.516777526473986 -0.33538891083448297
H 21.752940090601818 7.247358352041769 10.015414215061664 -0.2977729106459386
O 18.698373257792724 13.256417630663774 1.9976688496697328 0.7065163973891107
H 17.765609136457297 13.467107710373197 1.6958261362427185 -0.34890244965129913
H 18.794456817344365 12.269384736508567 2.1249034744892104 -0.33808169113261344
O 19.501202766208742 18.006361639318506 9.271626957201164 0.708977334594258
H 19.086735130987265 17.156654458276456 8.99715306389962 -0.37397285272881675
H 20.43273234001043 18.043327479759885 8.936462342058151 -0.33882637706958785
O 1.8299844000016086 15.682561787305486 9.100330944466695 0.645579658356092
H 2.468094641518991 16.405557984506494 9.18660943653039 -0.3386074288300601
H 2.2605175206781842 14.89720881225006 8.69319759620173 -0.3309870977751418
O 19.022633431928615 5.442184117825657 11.13628377558869 0.675652363045594
H 19.86658549754753 5.136414599288537 10.718635592773227 -0.337763812664149
H 19.13499171503749 5.576860385287587 12.127196111342734 -0.33535061404267885
O 20.50807167031577 5.200561379924999 17.22131136491327 0.6658649257700135
H 21.09782217887694 4.813832586706076 16.53631461582275 -0.3206863937436132
H 19.94413626060114 5.896672453873985 16.821896455822568 -0.3656159935977841
O 21.143116767516947 15.642858009833795 17.435247376309036 0.6564256586695967
H 20.84369318008582 16.19690410645621 18.202565695613394 -0.3536182828299571
H 21.067961313411086 14.69276989587858 17.71532245382297 -0.30915123809872647
O 1.5199203040730522 5.0018009285519165 1.9095528779778475 0.6204111002161685
H 2.1180320043171608 5.8163504314733006 1.9626965680573698 -0.28676483896506133
H 0.5667604449217064 5.309757892954025 1.9930696628538673 -0.32760049462023544
O 20.209294000471175 11.362850549322317 14.657257894904951 0.6875104072724412
H 20.416128952676104 10.739379989043304 15.428783590745049 -0.3330629908701038
H 20.307682027319295 10.879032199776793 13.79141995889472 -0.36473249098884863
O 19.452338470022326 12.58344051146718 10.224192922898496 0.6928706651503678
H 19.39446046770159 12.559982184719502 11.225799683149944 -0.3600244375883963
H 18.61057416339472 12.182413695669863 9.848367192686428 -0.3296278794470686
O 19.920791597289288 17.936026135718446 18.512631279750927 0.7509474985598885
H 19.514620073929553 17.22073120016382 19.019294924638483 -0.36462451076384905
H 20.56511906493049 18.430349061457456 19.095500108603176 -0.3553794450215835
O 21.252094877013914 3.258480698639974 7.202589631424271 0.7001574901604757
H 20.471198672120792 3.763501834454862 6.859069326166107 -0.3449994922579903
H 21.155583861571245 3.1163486653203867 8.160229729376208 -0.33905676665930384
O 0.5081440975145863 12.885943209831959 14.901668473980738 0.6629499432523769
H 0.3855801229866352 13.770436423777046 14.549940031426031 -0.3032114994463637
H 21.50686879771951 12.3578864675323 14.777273055036588 -0.3241907787848496
O 21.169613454503832 13.481722115958634 2.898648477961889 0.7349995817208006
H 20.21827144199862 13.50386367377641 2.607887726551118 -0.35397945561345867
H 21.28888547039164 14.002126237440978 3.7432738382564845 -0.3329669184000742
O 19.673502139992806 10.131442740830334 17.263650187124842 0.6705592313752424
H 18.910143673565955 9.781515857499343 17.794045094220728 -0.35972476723412916
H 20.50532026762372 9.824056392117994 17.6805891015047 -0.2992996273112303
O 19.36981945315895 3.4496808228954454 0.3344151032266364 0.6185633587728478
H 18.47443145293336 3.1657983871986755 0.0563381706396594 -0.3083904530207302
H 19.69804624596711 4.206965689975828 21.605130496989585 -0.31131363330371564
O 19.346787154057765 1.6610314943402598 3.1801048895691615 0.6453339656030153
H 19.192082151094713 2.5101330470613754 2.633461290544787 -0.333398071311389
H 20.22537497070749 1.2902845153618014 2.9729597094132405 -0.321310563204232
O 0.6915874227508659 17.417557806071706 15.603048460651008 0.6954090666581587
H 21.610879939216755 17.827733829850626 15.595706848728064 -0.34620680568540885
H 0.6090470825611729 16.462666070016343 15.922066927875047 -0.35913369430753417
O 19.4069777973251 12.400837517441152 6.532584217268086 0.6626287379314793
H 19.408870031929073 11.94322529328991 7.402609124056642 -0.33540114636639884
H 20.2273355436272 12.136426086965256 6.026977402577031 -0.35671165212906153
O 1.0686918601647815 4.2420057930009865 5.194483550484503 0.6709714015147048
H 1.3592645961062977 3.5178431879066787 4.587288218170452 -0.34135087320080715
H 0.6716208025328576 3.8366472108404466 5.996174691259394 -0.34538414319817035
O 21.790039042024016 5.470487650261947 12.799222082424189 0.6324212626579655
H 0.3534058978989712 4.88229127567271 13.510837605185403 -0.32104787621271347
H 0.3721163421624394 5.214238639982582 11.932349862047985 -0.3631672212253211
O 19.009069365236872 10.77242572110494 2.9963972596409088 0.6985298505717941
H 20.015648120167196 10.666627918230672 2.9208976410922323 -0.34771064866351886
H 18.611019000804998 9.923253897671547 3.312507111482651 -0.34844401817551185
O 20.917211590847646 6.279418859505652 19.751739165614513 0.659580028751038
H 19.980871926937265 6.265594506203436 20.126877356053107 -0.3150679408601409
H 20.942772094229998 5.904942684111395 18.8461340589213 -0.3398588012898506
O 20.932229799107343 17.132962813333496 1.617829152483646 0.624618878184557
H 21.283210742249192 17.91918838786794 2.1470307742096457 -0.29408108961601687
H 21.388089510215494 17.122027782598114 0.7268065071880677 -0.33491210648466585
O 18.89081116389625 15.958853106086183 19.796939590181015 0.6876545995030936
H 18.69096059630949 15.019429818905717 20.0129333592695 -0.3640992509660361
H 18.584871888039252 16.520089060730214 20.521577180078015 -0.33210979767686755
O 1.431461157744934 17.430742590712864 0.019691035212425236 0.6939475256953429
H 1.7478383972486289 17.800813181935474 0.8734298961053654 -0.36052759717489136
H 2.2050866377223506 17.35762095128395 21.199928087600803 -0.3450360835459988
O 2.17791494240737 0.6399709969039559 1.909580255584106 0.6478263754450531
H 1.3838788693820947 0.6631335225151639 2.490011566306482 -0.28306973295381666
H 2.172697605427928 1.4637890494424222 1.3739834411443834 -0.3446360738240337
O 2.0646772336428847 2.561130978709911 0.07209309124931987 0.6564754025621662
H 2.3304551743246886 1.9607992076071872 21.157282414958004 -0.3088362732656875
H 2.0819410385448496 3.4982773155037092 21.586092724053444 -0.3493558915957008
O 18.698288235998163 13.260899284106427 20.623102670212788 0.7214787677046681
H 17.776406288258176 13.4857249895976 20.30910890560548 -0.3620202930853864
H 18.81448360877205 12.264385172292851 20.74941935253352 -0.35566784503497373
O 1.5271704525053236 5.0022661214803605 20.533519106510617 0.6169964224020958
H 2.1295900688351996 5.7870584963224125 20.58148874532539 -0.2921609582568875
H 0.5818428081320665 5.313327981747968 20.57676130388508 -0.32865750953252193
O 21.16642935146377 13.484174650504183 21.51976538417595 0.7108996277850039
H 20.195749227059352 13.495699489576397 21.265067161376262 -0.36566747622933216
H 21.288237475786666 14.005536624401362 0.5213412897871149 -0.32136223640758466
O 19.374317547909985 3.4517860912107743 18.95245253777649 0.6747739292422139
H 18.435924860268315 3.167085853443077 18.663991892691133 -0.31414336945541177
H 19.698041456915742 4.209667882062212 18.391676843284394 -0.3395763695873204
O 19.012701934474777 10.767234614044927 21.622135480271623 0.6856057488796843
H 19.98443838212233 10.651191431421806 21.529722083325563 -0.3325561579543942
H 18.639347769479727 9.900403801913264 0.1264120216555988 -0.35169054442699255
O 20.869339652299427 21.369621431169943 9.958034923314262 0.7371211123603842
H 21.235560175668986 21.199296703397756 10.873060395090283 -0.3515060447026471
H 19.992389933170713 20.92595285406842 9.836506070143814 -0.33820655215375905
O 18.813162323538098 0.46935111142531344 6.4747508967469285 0.6455694719906351
H 17.99655517434177 0.9077481539652079 6.84640963374827 -0.32712862545513033
H 18.537265707732654 21.564959596015758 5.852604179333368 -0.3302311362885535
O 2.292894872405483 20.577826300709557 8.849795397462847 0.6313932336967918
H 2.2504518507792337 20.52220087577243 9.847910144737149 -0.3224160319134206
H 2.2938014421861506 21.532761358498036 8.558330564700897 -0.3094472429632006
O 20.639365592673848 21.47235385655036 14.977244811893037 0.6523217090379747
H 19.85083903381916 0.2449428241991129 14.861401668960077 -0.3267051682371207
H 20.534669420367223 20.98607329865779 15.822990516835933 -0.3365083566703121
O 1.8270862943985604 19.121293673574105 17.402829066965666 0.6762697416869585
H 1.419360219960054 18.550596495053238 16.691101992696744 -0.3452095200597387
H 1.1673846668846344 19.803834012063383 17.737105203894842 -0.30045212105899344
O 21.69151254237316 20.744093198554978 12.307473381368053 0.6350115819265145
H 21.437653100399107 21.119796731851014 13.218053323992253 -0.33384219238143853
H 21.404132444318577 19.795886413593585 12.241922795948994 -0.3336812212935185
O 21.693456587475428 19.24660868633207 6.180202849407327 0.6535114217677691
H 21.585186126601734 20.201958575395164 6.504412695303555 -0.35839795786397677
H 21.62095847748438 18.64091456539429 6.9709046534305665 -0.30790223257494054
O 21.253242880572188 0.05518211153061826 7.203847421516228 0.710100981821193
H 20.466899256960637 0.5430789572247225 6.8666603032207805 -0.36618988615664183
H 21.16097188637671 21.70432580434689 8.1776316758705 -0.34681088317086817
O 19.367883761376095 0.2457491660817198 0.3233932700871674 0.6298132504535916
H 18.46495265583873 21.794255475966498 0.03585622230020667 -0.30405781397842957
H 19.670705811516672 1.0123728161842933 21.599401534119245 -0.3395045452526142
O 19.343574497385745 20.2822243765744 3.178967868292143 0.6479456764852873
H 19.141667334187087 21.104876934661306 2.6557047361334605 -0.34834368072975175
H 20.231362186281007 19.927999898763403 2.971572941357255 -0.31969379857714264
O 1.0712451458651067 1.030874395837796 5.204315176530639 0.6521349691424847
H 1.3654553628632085 0.29579391011672157 4.567436243022877 -0.30451548319315036
H 0.6866115009741011 0.6187228478382714 6.026795196635525 -0.3326084861273956
O 2.1840689468536154 19.25920088707834 1.9054657828041406 0.669408351159225
H 1.375458706528494 19.270798091563346 2.497243590380938 -0.28480304079458174
H 2.215748411124607 20.091982439618498 1.365000680450782 -0.377948012320643
O 21.588849024927363 18.972437479464578 20.32619820422199 0.6833587718843912
H 0.2406148845199344 19.802858386048463 20.122010270929984 -0.33302368449417774
H 0.39486839629000453 18.338291849337022 20.779050937622877 -0.35423552190192575
O 2.0641315293191247 21.184866387854797 0.07096406100384257 0.6904863052647849
H 2.322393292480649 20.598162170929434 21.174290329138742 -0.3102874514812074
H 2.0732758337743884 0.29530224109963227 21.570151631852347 -0.3722319562963132
O 19.36728397631498 0.2398568400339142 18.95793685701087 0.6265731532822345
H 18.47210284036711 21.799275888867978 18.65987492411708 -0.3242315124484718
H 19.69300900872652 1.0072367841407917 18.382099196833273 -0.30295903295619153
1032

O 10.7272032610042 10.733972351330074 10.913414126416102 0.6851017729399125
H 10.29521057288071 11.590844152840749 10.92520692867653 -0.36288841310425024
H 11.709066669879492 10.425358412340524 10.913077562307464 -0.32269025061874146
O 2.245822612031272 2.749203485593508 9.960725086953925 0.6921645137315897
H 2.6031176891981556 2.598156841110519 10.869872975695753 -0.3616018869262173
H 1.3862139956728596 2.2832200451227758 9.842522765570958 -0.33261697993300765
O 5.69069114798292 12.753282122496115 11.649255425318367 0.6630187194332668
H 4.757381804817932 12.670173083854205 11.31703533910245 -0.3314810287816793
H 5.8118466132028646 13.616712303698117 12.084630326776574 -0.34068244382267854
O 15.546009587597942 15.109803402971611 7.030847510160854 0.676456152518818
H 15.012060149025366 14.984949991892158 7.810977907432926 -0.3549912122610016
H 14.986385760635592 15.208102895713493 6.241117196075963 -0.35715159204739033
O 17.434659787267066 6.170235063076437 8.558248953830622 0.6546285927232267
H 17.753909232328702 7.121518610763104 8.58862441356128 -0.3305051868161165
H 17.945714455162687 5.652020120495683 9.216272699113894 -0.31535630908831414
O 11.354142494663208 7.0342102000180615 7.174366923808983 0.7110073280501972
H 11.910603752243519 7.769640958085104 6.919953572407293 -0.35070667609135564
H 10.775190220906214 7.278243359501784 7.949537588218523 -0.3469453792759949
O 17.548214567871753 6.068411825559703 2.3100382698746693 0.6699550512885741
H 17.427476402548976 5.9104918217394085 1.320621697789277 -0.3201645665470747
H 17.24221653517456 5.275627954952101 2.780023786938125 -0.3504928875334822
O 7.677544441521786 11.442598543323793 10.228709729717087 0.7035102895129306
H 6.90369167715885 11.597606459538087 10.825685883284729 -0.344032199537469
H 8.01846951996185 12.330311575300126 9.89629779677971 -0.3538994712834598
O 8.498585191012776 7.986403028565974 18.22794243826619 0.6753876700373267
H 8.481610408718483 8.74592806042711 18.87969305527861 -0.33792261740437146
H 8.710406210508436 8.348110265876313 17.345885707230543 -0.336000973514773
O 6.852081843970777 10.118111733082621 6.647145255503101 0.7180802041815806
H 7.5533554948768264 9.974414857429807 7.364450816474929 -0.3533770180138187
H 6.098189170077026 10.66177938704708 7.052066517331936 -0.33185492284338425
O 6.861884899856665 11.607004286614968 18.0344140612367 0.7223548151426185
H 7.433134908492917 12.399701019506063 18.169173750152396 -0.34911428219074325
H 6.038205809348014 11.915560337670458 17.63382316466471 -0.3559392027411281
O 3.347170182276402 14.350283156602053 10.606920850544753 0.7085128455329324
H 2.5765955539494425 14.036322312600692 10.100927075540621 -0.3362038836061543
H 3.9024734155870657 14.953644605768355 10.034487889357603 -0.35133008054145654
O 14.609622254637205 15.051187113540609 13.392559705248186 0.6607888129566968
H 14.845287971709132 15.999792772220216 13.658030343652547 -0.3540364536963607
H 14.472015303669483 14.526859433442393 14.192564402404372 -0.3360665835624762
O 4.377011976861081 3.9212564390551794 14.98966932719222 0.7129150944160836
H 5.187276213800485 3.330742219191142 15.055703223334396 -0.35805472104237
H 3.5831252725817824 3.362025104968845 15.02439927786769 -0.33498291696962923
O 2.3047903691405445 17.130979877413058 4.829700091985476 0.7051242392295602
H 2.6473588949475753 17.889131474732316 5.34223869234583 -0.3526191395233721
H 2.739135587957077 17.129987090639602 3.951081966139037 -0.33725012369686724
O 11.270173535349686 13.411653839204895 16.902743952469528 0.6957027247031302
H 11.729063968202208 13.417403357557122 17.778203526112474 -0.3313975780376196
H 10.78265357296178 12.55588663099503 16.79450375892942 -0.359955886593466
O 2.309245093133229 14.34393520183783 5.378313571294097 0.7002455033920327
H 2.055563685252098 15.310269661637191 5.396352293237487 -0.34521335331241065
H 1.6313893230595042 13.799846952747295 5.811793111521128 -0.35376997316868264
O 2.402830326527709 10.909090700065697 8.856593858805 0.6885714857965324
H 2.5095219043277552 10.077319744149863 9.344669225554277 -0.3237691967099563
H 1.8670704697736384 11.523171072279347 9.420574711867996 -0.34596155029513964
O 6.19952598544156 17.867528739689483 14.387242957828942 0.7108230093060381
H 5.270603836584664 17.71609511448359 14.745393261962224 -0.3442254164551397
H 6.484315149904036 18.78509827662086 14.66362372864658 -0.33975994182466507
O 6.05664354818761 9.640460258052856 1.2318273355545841 0.6796480967687426
H 6.143979907561903 10.474260188594082 0.6921326309081084 -0.31327619475625934
H 6.51304364217955 9.76758700754355 2.077595674377315 -0.3673786052003354
O 15.933865610413163 1.1434939344452961 14.798706441797945 0.673894065264216
H 15.755200261214808 1.8020365647421765 14.08141468360731 -0.3172030986685136
H 15.89066814334084 1.5800919756476024 15.690556884038099 -0.34699001270323115
O 18.428695966385547 17.670152224190375 3.5934068809831112 0.6847448835733427
H 18.941770980558836 17.391827072263844 4.371614490201479 -0.35538145730109394
H 18.726986494794627 18.562476849262843 3.3077614344508572 -0.3228336979346508
O 16.89125612714437 9.219201369556398 6.118697887764649 0.6971632148181266
H 17.815276714153413 8.924516837293396 6.183980072521355 -0.3210014654938872
H 16.825662318225575 9.854398443681806 5.357563401418766 -0.3427897584392823
O 16.40958207006002 11.07706107238741 4.3148816237180885 0.6805499529030836
H 17.260542295813924 11.125281705858658 3.8148489986291403 -0.3441612233350835
H 16.546671852818893 11.538613041889368 5.183550632713877 -0.36237554123082305
O 1.1304704914592425 7.378500234615491 15.961604766634538 0.6843193638660932
H 2.0131828638260383 7.238063500417364 16.407375007779365 -0.3568098230802137
H 1.0070209142672752 8.327073508240842 15.76798131012848 -0.33793559354550173
O 6.129931187870278 13.656376726713003 7.25771768038645 0.7504272948890307
H 5.625482946445738 12.814020643671695 7.332165126296966 -0.3740637976394231
H 5.884795300560208 14.068297629680565 6.406687324124207 -0.35758262316854705
O 12.926750993621436 12.281232281006092 14.230993612767792 0.7418599874345011
H 13.322184051330177 11.56828649950982 13.651172608557804 -0.35133619889982637
H 13.445388482680551 12.321646909645295 15.076245990676894 -0.3601343501983254
O 8.080525907869822 0.04977294541684264 5.018498345595435 0.7543959106780225
H 8.525678388270817 0.9738421275232554 4.9257945932053655 -0.3357180340172409
H 7.119500889364136 0.1270178023092488 5.091613259752186 -0.36444635876947395
O 15.237400898952167 9.988575003500332 1.899945048355062 0.6104643874427547
H 14.647626257034702 9.220986101406275 2.0199979018586234 -0.29565153128670363
H 15.71595274976549 10.184475047343927 2.733153613122509 -0.3328367149885274
O 11.864077882656446 17.919687700198836 16.160372962845088 0.692823759242736
H 12.107464652946696 18.504445565512007 15.39518247814371 -0.30541212659551664
H 11.947775713293245 16.971456666208976 15.835107743652753 -0.3623852869521257
O 3.175327597017445 2.5070131680549053 18.011224551904256 0.684852014098194
H 3.869115855147972 3.226992425072479 18.082600502947685 -0.3296734597960608
H 2.302225796982357 2.9109566818458767 18.295920006489407 -0.34727298077210367
O 14.664998327935063 14.166830398613117 9.531722189660677 0.7319091217304532
H 14.092979907732287 14.216456064710698 10.34821601772122 -0.3424735810895536
H 14.530739424862144 13.296555055633377 9.091395334834662 -0.3577562082195589
O 16.669552893417002 17.14488004039933 5.717211497014828 0.7057416131394643
H 16.270946375539157 16.924960587721504 4.831354510391586 -0.3407286721372207
H 16.484259325608164 16.43321357953971 6.395535738914476 -0.33886126880972145
O 5.979380098940295 7.289757156274887 2.7051626585161137 0.6628575370624503
H 6.221193389962635 7.961798754934295 2.0295384572473676 -0.3491286849875114
H 5.197566127508003 7.609313821763075 3.2436653022293425 -0.3358515686010227
O 12.802048770911052 3.451153536869423 9.443207599663456 0.7115877140463889
H 11.948146493394024 2.9632459817963275 9.30036228902321 -0.34107070513250815
H 13.422908223871394 2.9122235319652465 9.98615948919308 -0.35113562654895814
O 15.766827615684015 16.61606725056261 3.0702352851862877 0.6957654673104443
H 16.651145717525175 17.07876249671798 3.088651954157508 -0.346958409206239
H 15.55120051556817 16.395064294161344 2.155312081493702 -0.35223374342557456
O 8.068993273419942 6.044856226481629 14.64961011974448 0.74730231797143
H 7.578303744555023 5.9925017293525205 15.540474140698336 -0.35395020038685787
H 7.542086837233011 5.532147075236874 14.000485063727412 -0.35445094887526174
O 13.938950989120626 4.683666713570095 16.74243697168514 0.663671849856069
H 13.73864447708641 5.123669520027564 17.637608286531556 -0.3510868098064346
H 14.711525521453868 4.058143629558972 16.843968760995438 -0.3335985995533396
O 9.734956271163606 8.905274758535233 15.721038593221293 0.7464139296094636
H 10.200463873435615 8.040260829000468 15.444430381388894 -0.36893798900784014
H 9.189178726330976 9.257903919415309 14.98133179278764 -0.34405162829593794
O 9.908384470150018 4.101513375977736 12.413529518697612 0.6690668507749704
H 9.159852279013188 4.449109164416986 12.957141343015609 -0.3361557961162335
H 9.550908937396725 3.606178958988886 11.61633191873625 -0.33771877128517125
O 10.409799996985642 7.00753511862301 4.289794499936535 0.6925623715481475
H 10.686834707680843 6.965441541181614 5.2406008802612885 -0.33743208227222854
H 9.57672900277024 6.490485489485782 4.1595678348036 -0.36352866905075243
O 0.763078617137634 8.107390683911069 7.889662697345267 0.6328148685121135
H 1.719440486338258 7.986363759083447 7.988745368659925 -0.3247192425978588
H 0.5299337176347482 9.015808175946217 8.082346290013154 -0.3071853158691573
O 8.65243679012217 3.4839117353035247 1.9458126472671615 0.6776652212363787
H 9.228093047863215 4.099658320024345 1.4642307073626366 -0.3449105014199847
H 8.829636375103677 2.569225799496618 1.6729407446931956 -0.33803974082993404
O 17.192501945603073 5.849480123328573 18.305701132248505 0.6857822266547595
H 16.904808190744895 6.75366382090797 17.953544350799426 -0.3698201280061607
H 17.160706831636166 5.175331396354446 17.585916729497313 -0.330144579049483
O 13.616446801083107 11.445144653343855 5.444745923797663 0.6852172427536409
H 14.421842355981303 11.151304670551392 4.9860064097099155 -0.3289568832335773
H 13.150986087631242 12.117918245225281 4.865635552736603 -0.35450161434017746
O 5.498019053310607 1.9553372086558543 8.847802937802081 0.6950663559459933
H 5.453487030590352 1.9057991785689938 9.844655589527175 -0.33628234988132355
H 5.5265832738502585 2.93073763492903 8.548047634636955 -0.3274980174792307
O 10.081286338718726 14.551037154302996 4.770442807616904 0.6830088235510203
H 9.606690062599236 15.284267692440201 4.255876347078859 -0.338023891152775
H 10.076441804511326 14.772613348769175 5.737296371052693 -0.3299884984521205
O 3.5169902222487326 18.00763965059022 8.530968173909415 0.6807331626995268
H 3.9889134433732285 17.138951754202253 8.580988898202126 -0.34735717410185885
H 4.153646317538141 18.79506153761547 8.475338655685507 -0.3573209812522875
O 17.953142689016598 10.659846939197893 8.727545369128478 0.7058704883091469
H 17.323165289732326 10.478751190910382 7.962894877540396 -0.331948441356106
H 17.44412817747474 10.796249533940605 9.567285474341753 -0.3483018932795209
O 12.269605110740805 15.501359927326384 15.058731718115059 0.6586534282335865
H 12.341373914140629 14.750400255181354 15.720720832948068 -0.3468620101102601
H 11.75284948164998 15.228994171833914 14.26318502383793 -0.3349343935442394
O 3.206881827883249 9.431489856365456 2.4127467286549336 0.643111713318957
H 4.0032054469008225 9.833115788464621 1.9933505636986208 -0.33274647148823755
H 2.915757680740269 8.603060055743805 1.9353797230668959 -0.3131475215846118
O 14.591564475316254 7.3457577776718725 7.279163865022828 0.6541926088060661
H 14.52458880842276 6.703122144920865 8.027319135216569 -0.34856574247431615
H 15.380752331993355 7.944850622359853 7.415175380777771 -0.325678283944274
O 4.61749265882606 12.656796773858442 17.27019601979541 0.7131808839371585
H 4.108890903609383 12.672430268323964 16.431943387024543 -0.384578181516508
H 3.998898543937626 12.469438387916535 18.02623528999605 -0.3306901301304018
O 11.105167053338016 17.756990468640716 2.3748081043753477 0.7017682922790405
H 10.474954095516832 17.121793002886733 2.848274487446078 -0.35276714244663465
H 11.423899066304534 17.343100311459057 1.5155734271541805 -0.33418733366707887
O 2.015751163209984 2.850724267723538 14.974073013537389 0.6133559797166876
H 1.22544797822372 3.4141672218823724 14.865761786943569 -0.313006764439433
H 1.9005305941431136 2.3440863478487444 15.8392131748138 -0.3337097007045301
O 16.316194293307273 13.775864579576265 0.8135885713229405 0.7115147096212144
H 16.044864972293105 14.706005533622783 0.7291408984536356 -0.3348943445616731
H 15.561082350862323 13.124549903987042 0.6891788953887849 -0.35817523604111734
O 4.645553496506884 17.43133102462723 3.2252255354195265 0.665756645277825
H 4.9819235552544106 17.77489550207649 4.085710890404074 -0.34218868135218317
H 5.384560703347323 17.3527209893801 2.592819404077349 -0.3092483991526025
O 14.005862292851619 1.0725264381869772 4.258090551807998 0.6437854609537927
H 13.753881708213534 0.7265478898800574 3.3618858416860937 -0.34516240768091067
H 14.977036307719153 1.2349812555057516 4.281774543669335 -0.2858495469052499
O 2.4940415016923674 17.85459596577197 12.409264624467946 0.6582856977808831
H 3.0544759743226852 17.212603344063986 12.89368158133131 -0.3355608735383937
H 2.318054934159188 17.513357995862275 11.510861663138499 -0.32707122398536714
O 9.40437477547607 16.97762515066292 9.03464733414725 0.6819487663319146
H 10.19730320323101 16.41898028521169 9.253030386750119 -0.33272072383835327
H 8.881960074601565 16.569974253110466 8.281455238059475 -0.3663083305993351
O 3.822541052096778 7.001560852415719 4.801031699711016 0.6859079767677407
H 4.285262795375557 6.109920878572261 4.77823237302768 -0.35946354158508564
H 2.8832255582086357 6.916315144200269 5.123287658637317 -0.33730580403080224
O 15.467013197162204 2.222186758487103 17.28930643742501 0.6898885714224381
H 15.417874043333203 2.583954871365039 18.223741627099756 -0.37329355800061004
H 14.752070160805554 1.5450406638462342 17.16782407568389 -0.325650753899684
O 6.144102767418152 1.2219634951819327 1.1706818171192968 0.6476352481843826
H 7.1196754636305055 1.0000391392203922 1.239990114137821 -0.336238650078585
H 5.831645870339333 1.0542963720830112 0.23585331715188934 -0.32620860761432635
O 7.814391819648509 2.6431908262591297 17.489947322113157 0.6541695816593984
H 8.454106533497882 2.04280389120277 17.90539314351968 -0.3276436510716427
H 7.071437706985316 2.860391559028704 18.136769308010024 -0.32752291515914567
O 8.883774564028299 15.148589251516716 11.949396364184839 0.6953655783206312
H 8.648908011969418 14.90214449814757 11.02823524362913 -0.3387213442368776
H 9.507084982259538 14.461591676888988 12.34173086640799 -0.35011675176103285
O 13.51026744772125 5.9110738752187 14.327119055559153 0.7044910831236884
H 13.791409352822587 5.473730885157125 15.189931751927286 -0.3458258419726734
H 13.778707210675263 6.82288307059617 14.344156569746163 -0.3621904856515151
O 8.029381718301122 14.02193866723558 9.234550150729854 0.6949905467067543
H 8.933642344665708 14.150831721794193 8.85948706871843 -0.3422852557276045
H 7.341845996616405 14.039974240241474 8.546090158824343 -0.3539030044018494
O 9.223722998109432 5.032467324464017 8.990621898465559 0.7192461178434035
H 8.991909064240536 4.946280897506244 8.032470825290442 -0.3773615449939248
H 9.70837811215678 4.238111342401136 9.285814670320674 -0.33518136966612866
O 5.394878239818383 0.6404961819216103 5.116398785985274 0.7324320577190395
H 4.564106135021514 0.6548546496203325 5.68952115865008 -0.3422829280362003
H 5.422349307269713 1.4655713610713814 4.556065103041044 -0.33943829296775085
O 14.333016682776552 11.886847369453756 0.40820630007272135 0.715195431862611
H 14.643786654822797 11.117948911854127 0.9491937875526539 -0.37902922610163814
H 13.469804991667495 12.105003435721981 0.6995617300252135 -0.3213786767702437
O 9.358496799434084 2.3541305386644584 4.796628731222116 0.6386496884997044
H 8.886565624709634 2.7485054119054824 4.008443464545836 -0.3392463289418104
H 10.333253357454453 2.355417698254584 4.605556456966515 -0.3472098515804122
O 10.760387677471485 6.832390943447878 14.638607760542374 0.6529001656631195
H 9.969473298982377 6.236502397848023 14.668203297236765 -0.3601358896290493
H 11.583338421788252 6.285056071293459 14.396874513327791 -0.3429349378101316
O 12.27128318142581 15.707094008330376 7.9293392234031055 0.6579864310822678
H 12.499338929121254 16.459273265252556 7.297650692161851 -0.3382653707687636
H 12.965362923651426 15.700438999783263 8.642828323930948 -0.32109842369740293
O 4.591773763518414 11.514075363609864 7.419882505148786 0.726794054237053
H 3.915056868396382 11.235408947587844 8.05928632100338 -0.3599884408589564
H 4.308919005405751 11.250068143478492 6.505700856976781 -0.36916843422372114
O 12.718287447851463 17.973932409644277 5.909423497050346 0.6995773404093093
H 13.139161157499906 18.624210973116146 5.300741029004692 -0.35293634374472904
H 12.209029215937248 18.465472054298562 6.618365656751817 -0.3384951712125899
O 10.321718043305028 5.497619724953116 0.16368231764266297 0.6525489315560034
H 9.908857307466263 6.320449554210253 21.632335261583705 -0.32937324608592755
H 10.92597747704757 5.7622843784750994 0.8891327369860035 -0.32119219916889696
O 5.616691494403825 2.2211439478414516 11.473904424455805 0.6602620431742947
H 5.981039168302414 1.3637695872990243 11.829294287645222 -0.3319361093661076
H 4.7308182761549205 2.4299322127162974 11.91508043393218 -0.3476180389664152
O 8.662495059502865 4.535766297878871 6.4259767702495685 0.6669640614677617
H 8.347471489952705 5.258522130454327 5.811969824210249 -0.33235948490345946
H 8.894042045207899 3.749096836622802 5.900641883411022 -0.3456948213338187
O 10.159735119210888 0.39355396745452165 7.533178696332776 0.6480863970239596
H 9.46001120903643 0.4242944386808555 6.853058856450009 -0.35189208355999146
H 9.926671084039873 21.554313113860776 8.213298041107416 -0.30294613633003475
O 14.288159903034153 11.73764901133598 8.673161260914364 0.6606140529174969
H 13.726547508513505 10.90661203539219 8.633229842766593 -0.3419527961065446
H 14.5320060476544 12.029050233945698 7.755350719640269 -0.3502689814042709
O 14.662920922040252 5.896485263011314 9.917842533924262 0.6659218964391123
H 14.352848855005636 4.939309895031924 9.970135744361404 -0.32730675717512536
H 15.39322565438961 6.062999282358319 10.57921961767538 -0.33150196111132624
O 18.574186084942834 8.33191916002687 3.763283348410447 0.6749804416071292
H 18.99524927609983 7.69531949162034 4.391496673646762 -0.3534427669749747
H 18.191955471339817 7.820767454879673 3.008436548095164 -0.32761717390983813
O 4.885208236684116 13.846597912681254 1.742594274210867 0.6923073426982169
H 4.019808573131316 13.739087851997262 2.1993856317683447 -0.36705590434551993
H 4.726830744170455 14.10700266023675 0.7627173751294601 -0.30083289636889887
O 16.645146037079066 12.798099258875029 6.567132004029095 0.7210339244741473
H 17.603804764521286 12.870975279810352 6.713468773519012 -0.34231773052761727
H 16.189378741193494 13.615551190380021 6.870373389690845 -0.3470457533403386
O 13.900507955295298 5.745058411778401 0.7685085732360792 0.7354943169942825
H 13.389214815754954 5.5301763941796915 1.5522598899896844 -0.362107659768643
H 14.802089721368992 5.3420597091473425 0.8728291695011093 -0.35943313729201654
O 5.270869512733311 2.5621651606616194 3.2816029312280843 0.7075713641746262
H 5.5265443238067515 1.986050165706186 2.534746642520366 -0.36554058488300434
H 5.253430623749113 3.51507424617785 2.9608236472218987 -0.3485270912059627
O 17.5411479531483 12.231876101065453 15.874626551272597 0.6799078031047205
H 18.47500588592371 11.8498746506262 15.76247426038784 -0.3343277540312374
H 17.618338729304767 13.217545205841725 16.107118926384825 -0.34732611016286197
O 10.633905159606783 13.47134800886717 13.403036524395798 0.74142197354813
H 9.861221733415634 13.209030239649381 13.97546344524995 -0.35471905199447584
H 11.48292214721494 13.194339383814983 13.8796148423086 -0.3498062962140952
O 15.923295032995105 16.285582822823798 16.246721040181992 0.7258102436826253
H 16.1914462172912 16.631962502868255 15.358427337154497 -0.36394981700397266
H 16.696383840799115 15.889931410150947 16.724773365504888 -0.3301598546423027
O 16.375430399568423 10.992315997062816 10.781845012740611 0.6677678835553822
H 16.417952543631813 11.819185247376774 11.360252041068927 -0.363328870291704
H 15.503105533939557 11.009006844284382 10.296342743348616 -0.33976174552707317
O 9.155419482683504 0.8853588151660887 14.021913150752997 0.6809012127282239
H 9.403782218395552 0.6717839488975086 13.102999431156949 -0.33542803677126565
H 9.87082145301801 1.444391897561827 14.454318788807678 -0.3203800352179301
O 9.798086764881749 11.15941674201837 17.188615912385995 0.6844718082080838
H 8.793332950634305 11.202558544067577 17.266519767927434 -0.3399231736824948
H 10.019003516245254 10.38087197259482 16.628643787349823 -0.35456229099523007
O 7.055852948537132 10.501198221017185 3.686141401157112 0.7283282309664827
H 6.911787259915593 10.578047865775794 4.671064333311167 -0.34373620552220774
H 7.875329326328633 9.999618057165698 3.516715131906911 -0.37042875538412257
O 4.091684460049343 8.126426266500136 12.510545354510747 0.7037985800535305
H 4.949050856372919 8.259259499768028 13.038963281721806 -0.33732835559244645
H 3.70267000681033 7.280732640483671 12.767413144787927 -0.34325911699361
O 12.74228147299365 3.8594818829255964 12.621943944658506 0.7183109033775379
H 12.96519278164657 4.606274020424904 13.291595407596455 -0.3598324363652622
H 11.862386037302167 4.035045360729462 12.201322864474248 -0.36235246829402334
O 0.6372408614040553 15.637573929315305 13.311365228747835 0.6334719356720564
H 0.19978786772720614 16.45991932647383 12.954716841279533 -0.2931350154487319
H 1.6206134307712738 15.84965288734301 13.381944769688157 -0.3378782711213636
O 3.6688375110854743 11.012854385885547 5.009058136734801 0.6511310009449716
H 3.6062119658401803 11.827779191170531 4.453158680461347 -0.3340254938317976
H 3.6980348914965075 10.202603317868553 4.4022182322550965 -0.34787170524291955
O 5.662395670503981 5.37137859264854 8.647470128329083 0.6773441742948165
H 5.810120520834294 6.021922142072836 7.920064680014776 -0.355913044965553
H 6.106617712926532 5.747298007346302 9.467184173932752 -0.3232062279973209
O 12.523381295898671 13.469041104537354 3.883887971240832 0.6755375430891961
H 12.98468289011894 14.259822991615966 4.257214774409882 -0.34708436616784133
H 11.567977277686188 13.526870720686166 4.2187342815928925 -0.34192463189692357
O 12.720845176983323 14.455435207830241 11.424636647852214 0.6640754728522333
H 13.198659894097096 14.562127957803161 12.284718668134007 -0.3438056121926255
H 12.087122094122723 13.716537370970888 11.486785529350406 -0.33880614255557207
O 15.82500853515824 6.394110174237541 4.715121643759484 0.6599029641358465
H 15.517449520799877 7.002305769102211 5.447941796495616 -0.3456359094414143
H 16.320813392388512 6.906563036998912 4.0546526178071405 -0.3123621123220689
O 3.536440284977663 15.102819314724472 13.29601487861318 0.7094114479314859
H 3.3129587547830535 14.6693059976794 12.438005123310855 -0.35630291082146737
H 4.476039911657915 15.35996562358019 13.321483157159244 -0.3522861040949826
O 4.0269473695392275 7.515248851800644 15.99101955863719 0.6585245326247149
H 4.701266398835284 8.037619550717467 15.519713856395366 -0.3595874299911428
H 4.451065429645304 6.637906356871162 16.245509363987342 -0.3368141209282248
O 15.867322287969216 7.787544010119315 16.704475865581223 0.7313828406166412
H 14.970805680948901 8.166737531958159 16.643043704033076 -0.3343470148021579
H 16.46074390248987 8.271595063272077 16.034144796357136 -0.3619479563127972
O 10.136832334741925 1.0452294239456572 17.70030947974216 0.6469885321885984
H 10.19730404815235 1.8924277726595997 17.18685611741956 -0.34306179062784037
H 10.422409039252159 0.3048428692593345 17.141775566142485 -0.31047186304918495
O 5.039242398970672 0.49603372987467936 17.400483621003684 0.6865615443077351
H 4.628907107436816 21.76841159561651 16.705636265164433 -0.3298915959374177
H 4.372446417866527 1.173445825160845 17.736233414481198 -0.345646381322842
O 5.731026182461254 8.695602216832835 10.290828446200063 0.6682521899855773
H 6.164275824873181 9.585788380531508 10.192489013799994 -0.3282818881274352
H 5.0898340118388266 8.67886883541468 11.064863876897768 -0.34569697949919853
O 13.606835521754332 8.613846799657013 10.447179309283415 0.682026290515032
H 12.835999682073561 8.654142517145026 9.786383131450412 -0.3412613871384754
H 13.97122781798459 7.741279200879 10.550243330408394 -0.3546193227009613
O 12.094449477887796 5.254991486238791 2.747360359218294 0.7144596841682027
H 12.221842546386656 4.425363518641477 3.2738456376258247 -0.3565623395351679
H 11.812399748457242 5.966874493308884 3.3397521359774887 -0.3397546401398187
O 3.0683467678230807 2.1256567578360617 12.310064515192707 0.6355170346789158
H 2.830583511583569 2.513706811353078 13.207880327173637 -0.3480808017874051
H 2.7668711579092284 1.1779624648980505 12.24835695078143 -0.33980383776546574
O 7.318384705139025 6.338822110051376 10.640993752382247 0.6821391704719133
H 7.92161579437333 6.078498981449954 9.890847954890095 -0.35472074232019
H 7.052212247901903 7.274522340562926 10.528502458873977 -0.34715235948372314
O 17.28444966997596 9.35885410635846 18.542854254002325 0.6726837218147628
H 16.81557311867766 9.281156195696047 17.66289389375197 -0.3253476514131952
H 16.66795412053681 9.797084796502524 19.178080780005825 -0.3448862950966727
O 3.070097587453936 0.6305187309245242 6.1770150472591485 0.6060569800395568
H 2.925098019235776 1.527926297120247 6.483398213093646 -0.3538260919254801
H 3.000786765023542 0.047835829298478315 6.944146889329666 -0.28503389249023836
O 16.220951357504482 3.661018492138677 3.7422032445900255 0.673389034747574
H 16.255214522787238 2.913145566615968 4.375447888837973 -0.3392266773402842
H 15.741715875639123 4.435544550484846 4.118205802038996 -0.34448326874507373
O 10.237634559289205 7.6549997961536915 9.65883826060224 0.6891102973664385
H 10.390706133489735 7.865725586294666 10.611300860032623 -0.35328945870128103
H 9.94786441032681 6.705897137482989 9.59767930682452 -0.34374397447758287
O 9.803024659176756 15.732357381261645 17.003847658923384 0.7271951807520889
H 9.596784718179718 16.16533502122552 16.131223526152308 -0.35930443369933296
H 10.164296747024363 14.84554139606243 16.81240646048504 -0.33569759096912455
O 18.58676548929891 15.17823021329383 16.054001491534315 0.6898482235973855
H 18.715922250021524 15.467143432372032 15.086781637265965 -0.32537396326269885
H 19.415676667431043 15.413907943402753 16.563075406551587 -0.3396305278951415
O 3.502740727614769 8.974113137840536 18.04442494400968 0.7123726302484137
H 4.259930653368208 9.417738816800913 18.52156277609137 -0.32713344029016156
H 3.866115717020103 8.511780455354414 17.23114513005355 -0.3535648397154103
O 15.401586014004742 2.741054951683268 1.2536979021850534 0.7023742679844425
H 14.796031645695031 1.9659012664704294 1.4789517999424533 -0.3293808224873821
H 15.612092391178702 3.2547589679941114 2.0672260651068473 -0.3484068957216203
O 13.037771674343283 8.380595502539098 0.42384944072975594 0.6593754105900009
H 13.383540476096845 7.448347321987908 0.5662937240118917 -0.3558314699157539
H 13.230945938404178 8.649855396039444 21.302611713216265 -0.32399584320078867
O 10.685559874075599 13.32660870290126 8.496883954885785 0.7023075825814775
H 10.75425603581982 12.505657424741443 7.930228890562522 -0.3561600604380195
H 11.295387362415225 14.02376410676461 8.140335552790962 -0.3280889461562886
O 3.1881364071118625 8.095936327030637 9.497406231680445 0.6996133061791054
H 4.084216960112202 8.448862591444426 9.524807499356431 -0.34855322860832694
H 3.123500823680868 7.2411071749048475 9.995081107522175 -0.3423988015658921
O 3.3851998582420215 5.090412199999712 10.05919101470892 0.7470270001709842
H 2.8925679272160703 4.271455168885668 9.851615429242981 -0.34771097273671225
H 4.16039036165728 5.136184542180031 9.420652194592638 -0.3572945631631418
O 11.382909737500073 3.805699217546446 16.778818028312365 0.7054913180128874
H 10.954511648679048 4.414153622045622 17.404421186276014 -0.35676249016854833
H 12.289196621077469 4.12192732311517 16.64112259382589 -0.3374072817828697
O 11.598409743640412 2.063121322716811 14.771251119740642 0.7068003799987395
H 11.589079138163077 2.690206990166674 15.542835441196084 -0.36167841041655757
H 11.866661204149432 2.5518533638131555 13.972412103039552 -0.3285982910291243
O 0.8865229315627196 18.01164453846437 9.269057681684249 0.6856179953867789
H 0.45937621308707577 17.185499467875875 9.039556792499718 -0.3187410337190637
H 1.7821530860962134 18.063570723421414 8.922474672982482 -0.3531390002292799
O 5.042991463786691 15.67900817353237 9.096597389161952 0.703754796265267
H 5.681383012897194 16.40838089963186 9.195193583537186 -0.36760891479683544
H 5.459200017592438 14.862240522091236 8.692940230657706 -0.3539462183434252
O 10.022267500910813 7.954131102582346 12.381884221032278 0.6831111428656635
H 10.432119806779372 7.646386615845482 13.243233258998329 -0.34716627692641433
H 9.075687322635858 7.694798772722124 12.369210639962755 -0.31727749027535823
O 1.8893341511253456 5.197500028613083 17.21984120865584 0.6705146637190502
H 2.4607177384023453 4.820376067357797 16.524442546876255 -0.3314861706241148
H 1.3097517429006587 5.892442886392341 16.833138269291755 -0.3435219714507596
O 13.686718607578209 9.50131404072395 16.600423472288853 0.6830151768087589
H 14.088906444207018 10.403784799279057 16.786119218291677 -0.34342682750956155
H 13.802415379290947 9.289649227702181 15.661739765271744 -0.3452994277016034
O 8.146752821658579 5.725016694361634 3.25093616688981 0.7298145068683919
H 8.21541682931813 4.833620496241183 2.7869933943280145 -0.3552501752468322
H 7.225833283354972 6.056761211360762 3.1830115116156774 -0.3509890124178643
O 16.56992346677501 6.0428220750486545 12.064876168203446 0.6888606461085418
H 16.213325421241656 5.380179196090982 12.691518193273533 -0.3341227043115904
H 17.37371466291189 5.67260592304709 11.638572599271193 -0.3587202320037036
O 2.5199974868347734 15.640386511931283 17.444633442738215 0.6921745655282479
H 2.2414120503016353 16.21796022818039 18.20078611777106 -0.3256757159513799
H 2.443958675292448 14.68185707837899 17.694375173529018 -0.34651063999155773
O 6.702393307313518 4.633136285169452 12.693517508009172 0.7046995798565279
H 6.3785963567196315 3.7605782775626095 12.378342281169115 -0.34224387345337726
H 6.989772088012346 5.149824118076251 11.896346663319472 -0.34802459338147773
O 9.303384930685153 16.786257457618213 14.642623712566962 0.6601204583923233
H 9.10331189608315 16.589758953331515 13.70579330167404 -0.34508488590524256
H 9.615553678111121 17.704575255273458 14.769603906405779 -0.33719008486460234
O 4.72460414062613 5.005103709573205 1.9116325243113859 0.6512459990205972
H 5.340592379069177 5.786047361149072 1.9420783569716478 -0.33412642426617334
H 3.7983456955666255 5.308189727177855 1.9508401611412458 -0.30796195563041495
O 1.5946824287008114 11.363236560937214 14.662266647543392 0.5625289129149005
H 1.8301023772479716 10.779300878437112 15.406723734500753 -0.31287496452693553
H 1.691978649444004 10.878174646876653 13.796698961292542 -0.2879796142618839
O 13.469791184317954 10.591606273164432 12.346860047268143 0.6659278802992379
H 13.690802867259567 9.989483829752738 11.614030361191713 -0.3543167862662945
H 12.59867293215302 10.999357775744048 12.144508790597396 -0.3299879640595824
O 13.01949503914565 8.548226204714034 3.093468557580146 0.681077424136161
H 12.154673431561752 8.225728847472656 3.5019913615057625 -0.32900401647458255
H 12.965583625921974 8.411235151646531 2.1078523919970564 -0.33298544184700374
O 17.587577326986256 17.477925070673187 11.542620085545288 0.7122075876380443
H 18.205696495061662 17.767253785280502 10.823022425191793 -0.3482027434685906
H 17.199614024186634 16.58841690557353 11.272370598021366 -0.3591191735537508
O 12.519878990231383 17.30946354406063 11.27950412282028 0.6874284412749052
H 13.342067149249091 17.350511580345263 10.753104483755529 -0.33787403303856955
H 12.293183026336465 16.377400645731278 11.484317261481564 -0.33816806759345297
O 0.8303991739155209 12.578060939278178 10.22313465158263 0.6459914970867322
H 0.7693565691843186 12.585891451551975 11.195002529140284 -0.3311737469501411
H 21.80746087509452 12.163861593417668 9.846962441727694 -0.32489435067277606
O 6.877145739571243 16.62059923572769 17.162487985899357 0.6618884934279778
H 6.332601380922529 17.423272297475375 17.255650419228015 -0.3312967282301412
H 7.376278160305175 16.66931805898378 16.312178021109478 -0.34643482867860576
O 9.035652686931002 0.8609883973562703 1.3294776194137856 0.6160027142861892
H 9.527979029105385 0.878072213365157 0.45616805068541366 -0.31019742893456315
H 9.582766106105938 0.43868044580948734 2.018536276884904 -0.33340985361588393
O 17.264513113243073 1.3430121871994731 5.227028356847286 0.6798785269963501
H 17.989011953375933 1.1989322850539323 4.558248122836376 -0.3632770183274865
H 16.947374964437675 0.4872109856058363 5.613229380253759 -0.3231863033879451
O 13.883518300672309 15.735378620648778 4.764844090140826 0.7091828669289333
H 14.535510274494598 15.850386176366182 4.040435916562404 -0.3562113852407933
H 13.465532403695198 16.587193070382995 4.9918164098511335 -0.355676287287762
O 12.798122590653653 9.262954459347217 6.714581103483416 0.731384740815221
H 13.362534856988269 8.482149565999439 6.762084849387711 -0.34325758486995006
H 13.201022531990992 9.94067895690225 6.120996511983841 -0.36155894064037497
O 8.299455720273064 12.727962661016372 14.22145331858849 0.6589785661825331
H 8.255692806294286 13.071377216643578 15.134068754750817 -0.3553155180881905
H 7.444745303514592 12.921145349552612 13.756790659410248 -0.3488752512429505
O 6.719783509493935 16.157899093177218 1.5416050017728027 0.6800611186079735
H 6.818857499264434 16.24837108089485 0.5404535229333226 -0.3211211374243348
H 6.294885166820213 15.250277091493755 1.7471678946758313 -0.36047351608839173
O 16.501408324240682 17.207992685961013 13.939606554824067 0.7101909017951806
H 17.028113590381675 17.303557928970243 13.102934426329512 -0.35620710631360974
H 16.227764073221707 18.091329681212766 14.27654008188717 -0.35150598935660793
O 18.41019369651788 1.7478027247853427 9.634309518540373 0.6692140042801871
H 18.780749029308417 0.9189006832911006 9.275776222024584 -0.34092096682760276
H 17.42908240361923 1.7563220840968043 9.457896419876231 -0.35825077529543703
O 2.624639117206486 3.262982042580077 7.195233318539052 0.680842478374454
H 1.8584279989986277 3.7961307494385026 6.859911543757012 -0.3437276878982588
H 2.552379486870208 3.1209797852647307 8.186276110762968 -0.3365459703840946
O 11.943159496957323 16.125089744650797 0.32312233393908796 0.6844348696919678
H 12.015226871463616 15.205434783970095 0.6933587525596447 -0.3679890330154423
H 11.342411083278643 16.097466486692927 21.353460383543315 -0.3260255174849299
O 8.215470230101475 10.026782305476225 13.730618326384583 0.6735326989399013
H 8.615395290104994 10.008946799900535 12.802561697202131 -0.3462123633227705
H 8.310225417702513 10.914532935099436 14.103088705128666 -0.35552133295942856
O 9.157040271974186 9.10219006004655 2.9067153217761974 0.706789496670897
H 9.78547033422951 9.495337586918396 2.254411175268429 -0.35450700944189206
H 9.562175019224592 8.269115917239194 3.3389703846453314 -0.3411433775256002
O 15.039885771590928 16.071218088282624 0.43428377085091513 0.641052987636515
H 14.119238034706495 16.425183484365697 0.5149126665431677 -0.32662499922377175
H 15.426569713419319 16.283069843969365 21.391306950345808 -0.3423734255970975
O 3.722582503201937 12.881033886582697 14.901267750924822 0.7198117224173588
H 3.6076276398496585 13.794040848484903 14.56823491199731 -0.3500973260845861
H 2.877012346215889 12.355244283784382 14.773584207814245 -0.3566228986666585
O 16.139777172805 12.923418867504964 12.88863716182264 0.6847187372988959
H 16.745249107621976 12.948989476633386 13.670936725989655 -0.3356133211072613
H 15.406196753902913 13.552765722464631 13.025536831768974 -0.3448218768440735
O 10.391869751982968 10.983779913443078 6.9589759136588905 0.6841034477877308
H 9.683426006595955 10.492199450245632 7.52055014806952 -0.3383293816284664
H 10.958514972508423 10.31564263294272 6.514822294756109 -0.33447879085712573
O 10.132904713848967 2.357820857820452 9.710847800461952 0.6894612375261282
H 10.034938319339158 1.988043146118002 8.78613790052251 -0.34620423615735785
H 10.110070152063322 1.6148380913690128 10.363287985462609 -0.3313952413240048
O 5.9071982514950125 14.868304265509774 4.905781027365298 0.6627690672720838
H 6.335702456980775 14.291147749777515 4.205952001617772 -0.3405866871805252
H 5.470603714512439 15.64920486562203 4.480075911064816 -0.33410856930919
O 17.090072326542767 3.8483248988085887 13.808249818779313 0.7067041708077628
H 17.819173265217366 4.543670183977221 13.831547025655192 -0.3396022762075501
H 17.346143625976808 3.1113627694803965 13.22767771822056 -0.36077597354294166
O 2.554198418457676 13.485302855445244 2.8936596907907077 0.7062514526475638
H 1.5815601371302588 13.491279541941264 2.6248451038027043 -0.3525634357124591
H 2.6465755864617715 14.012742668956227 3.7279987038917377 -0.3590897096194239
O 1.0530589037747826 10.132019026709242 17.26075057475716 0.6642143848978534
H 0.2939225045754089 9.794120529383367 17.780061441880576 -0.3026968216807836
H 1.8888600605925563 9.814908596579832 17.663182095867217 -0.3507780657879922
O 6.715356723215466 2.026786353829292 14.895257660735082 0.6702715343423122
H 7.621458988070938 1.8775840425975316 14.464139200390346 -0.3303406701779419
H 6.809838566395033 2.073503155063334 15.849646368899682 -0.3277764847453425
O 14.402663584616965 8.559072868592796 13.979700604253582 0.7000735859244198
H 13.839645745225063 9.078909400038206 13.37513952518765 -0.3467854112778933
H 15.343144957545649 8.660691762120527 13.72335226736288 -0.3476312893158975
O 11.826801787773437 13.353121755976963 1.1924899962011506 0.7359471209446422
H 10.834784483709873 13.225241145276458 1.215606800197975 -0.37730171096228193
H 12.15668226143623 13.533590364366573 2.122050589537497 -0.3412033921864204
O 6.125326636810914 8.419300521510626 14.31312016375546 0.6865901388597484
H 6.71149606522968 9.218816541351947 14.154391166027239 -0.36003097708443366
H 6.711734917729009 7.632690842194639 14.330195363417666 -0.3371103675215946
O 14.932820258332208 17.66985796209038 9.597247129571645 0.6392884328596491
H 15.273506115136618 18.326616720565575 8.926886966377872 -0.3289259082806707
H 15.564622803517118 17.597820663772744 10.331055453430242 -0.31601053280700175
O 7.163762472576075 5.649071081054399 17.087739155347446 0.6495020195174641
H 7.370647421715037 6.291432632102592 17.821627397850293 -0.3488563164791292
H 7.719742239918711 4.837594188754044 17.167805787524326 -0.33392376437310745
O 14.500682735707239 12.195392097270023 16.334776879768086 0.68697029293953
H 14.451887687784897 12.113679577376528 17.30733548449001 -0.3654973769521598
H 15.458299781857535 12.132019160971671 16.048872139035325 -0.3387649841132867
O 3.9054766974301294 17.407045086212875 15.601921846857048 0.658203797541633
H 2.9943667553464377 17.807664893724596 15.589561321525615 -0.35081486217456137
H 3.8414464545340614 16.49598833442268 15.918403362266442 -0.36557927963959047
O 16.74637081555925 8.82283888204427 12.540014921969862 0.694162919533869
H 16.479174300586887 7.957082858044431 12.163982414866947 -0.35246252617124696
H 16.732686390508118 9.498184999775178 11.83061563709964 -0.357720019416372
O 12.250183823004152 3.2502456880842368 4.488989558872758 0.6973342257552888
H 12.887578369163737 2.5413476634263676 4.421642181251371 -0.3557358107367583
H 12.438016903605924 3.7702204179021455 5.319137435421293 -0.3474012666242944
O 5.946757032166944 7.445031451667373 6.520242744704253 0.7000516142449875
H 6.421838182505933 8.28852503232411 6.358167229156332 -0.33894474842459954
H 5.055394006572472 7.4807401763865435 6.043253343799866 -0.3339652008226315
O 17.76788009235875 3.425250176350793 16.41548413667753 0.7100985361152574
H 17.60226742552302 3.7249889034357673 15.492869266196363 -0.3374904167599512
H 16.93761127406062 3.0497955958819682 16.782811327344994 -0.3362670665090799
O 17.301100822807744 9.334873363969827 15.173671150826419 0.6907844771155727
H 17.690397188213804 10.244312125530438 15.307391729465069 -0.34521893718387453
H 17.208929495592724 9.198726720163549 14.175158565017641 -0.35448572595707506
O 8.58659863378774 13.741686646683764 0.16048300296603674 0.6560558398511827
H 8.12013619540675 13.889110523175995 1.043320173333573 -0.3358783678153009
H 9.014294779379352 14.593103040949497 21.716929670189533 -0.30933612641332875
O 6.611076074251141 17.902496586568986 9.533229567950212 0.6681064888761084
H 6.127790537782872 18.779012186805723 9.402627978462757 -0.3381646123540738
H 7.607531310904748 18.020601749576727 9.44495417273533 -0.3353506847066966
O 8.587255644481624 9.557876584283964 8.606641012885083 0.708703959533139
H 9.13125655439591 8.875869859449592 9.083049956029361 -0.3524422301226615
H 8.282389694565572 10.23610292994451 9.24663541808521 -0.35797155502096256
O 10.834740664652303 9.83990975076803 0.8667577948288889 0.6723538796742368
H 10.577921433432365 10.345355810639026 0.06236705288232376 -0.33022823092599496
H 11.646399207703938 9.284951550009696 0.6659331332073609 -0.32985773428017695
O 18.615111047220726 15.693955499106158 8.504861614906762 0.6453909301996701
H 17.90765366468002 15.577662498551916 7.7854988929864275 -0.33534822414305687
H 18.63703184776879 14.913994531123583 9.092183916944986 -0.3458686573807096
O 2.210720774260012 13.137993882855898 18.43727214891505 0.6415177285911984
H 1.5646367641700998 12.417237743540298 18.226464130874156 -0.33924731325738366
H 2.249691145345513 13.266385249536691 19.408491243972183 -0.32815609807036095
O 0.785429078744373 12.399146876882982 6.52908066193974 0.6361785690484991
H 0.8091315457275663 11.94859595384936 7.4068882233870585 -0.32632439821752834
H 1.606988302680387 12.111453161238098 6.017036780119496 -0.32520010619670203
O 6.722372509412955 13.918487263448414 16.24012911316361 0.7161411648248421
H 5.95915413347596 13.393066921679685 16.60637032437813 -0.35086366851961237
H 6.680390889319775 14.842920343966638 16.58910808502634 -0.32983417676286697
O 18.244276610113204 1.922445505219016 12.276713376342865 0.7052929717289764
H 18.19218009514411 1.0200260001916628 12.724903669644709 -0.3204791737703061
H 18.258094113442503 1.8070999397286305 11.280408301608581 -0.36490771604629113
O 4.280538936128954 4.233059805692003 5.1997479781830345 0.711506045849374
H 4.564639472871784 3.5183644494898743 4.56765693197814 -0.34731337356846015
H 3.889771980437582 3.8211508865227457 6.0209150921658425 -0.34124850782704275
O 17.04654785794399 14.873049507142369 11.033739164386253 0.6731267266720415
H 16.12683485328741 14.60547469957426 10.793031693249265 -0.34516325263922987
H 17.322847998174858 14.379262289701176 11.864038400311465 -0.34376333152759075
O 3.17551517729893 5.47079955618663 12.80371888808205 0.702207569989393
H 3.5645962432545044 4.881528565716156 13.509486143037725 -0.3307667347024281
H 3.5702588447505854 5.21787018999728 11.941307917811224 -0.35718389969860154
O 8.113704432194147 15.85784328920907 6.8745220957686435 0.6585860742912857
H 8.43072794450374 15.980970677481523 5.931992643222745 -0.32237020313301645
H 7.3325954315317325 15.232569272301985 6.8829600882372945 -0.35030534953666737
O 14.239203588311595 2.140570565767182 11.115050803919747 0.6651727810335144
H 14.742412720422816 1.510747712836038 11.68683449198403 -0.31618413963114833
H 13.746546015201634 2.7668095488206417 11.739893997639143 -0.3556461392859288
O 10.017531589496734 0.3315783303527959 11.540253258556568 0.6289128319908484
H 9.396818499701501 21.416359294833878 11.228932525853084 -0.357956490172208
H 10.91889176562534 21.82911691860277 11.529626382499236 -0.32307564650771525
O 7.697543751254702 13.300452094987886 3.004068343277245 0.6754010701838453
H 7.237902125434463 12.449146608245778 3.1761933216982037 -0.3541656857819363
H 8.596427361066683 13.25786340071565 3.41189711911513 -0.325845326855735
O 6.181585358546011 15.669349700854097 12.839143170059657 0.7165812197732304
H 6.132644211188398 16.486386313178453 13.414977407098739 -0.3546308859663364
H 7.07730734601646 15.63817465466798 12.384230876709768 -0.34055314761879996
O 13.520236213938984 0.5233433782903425 1.6895095887348606 0.6608034699951366
H 13.873713352909336 0.10412500479579564 0.841200023578344 -0.34916067617552415
H 12.64586179598419 0.15854707191660275 1.8737871811671292 -0.32257344407304
O 13.00070042859259 4.533548676373968 6.90823952119122 0.6888567774948404
H 12.411012631324379 5.341419860155485 6.96163465753133 -0.34298018961269483
H 13.152050414999222 4.192028469573902 7.807743226852422 -0.33781958105218146
O 15.9296929364593 2.210571590818115 8.825091028785975 0.6611277009727994
H 15.089919752435092 2.204779511695137 9.356167083227133 -0.34737109723179194
H 15.941670069107873 3.0412446221089406 8.244705683281282 -0.33579006272903955
O 0.3889646143191277 10.765088328607243 2.997460757425435 0.6184469629332634
H 1.3795322893700883 10.650451828887057 2.915867311809724 -0.32527685056614064
H 21.80742993125902 9.911929629422037 3.3216595036198067 -0.29378769769130253
O 8.747152954783072 16.46106803752534 3.3680799677527853 0.7129303504961868
H 7.9820095125936 16.107832441051897 2.82732723263314 -0.35484742974683126
H 8.39668965383182 17.171502629262175 4.0003841921089895 -0.3636327976393623
O 17.55318764675573 6.0709684198926395 20.93581301879541 0.7036927846691432
H 17.43876428297279 5.946268299498887 19.951807574558714 -0.37358482986133823
H 17.260377137797157 5.283246596365901 21.425332248259277 -0.3125768510840704
O 6.0580242998052185 9.635150093906267 19.855698906518825 0.6936319897037455
H 6.158838484446451 10.472277423045549 19.298797464795232 -0.35177751460838724
H 6.527213552955454 9.770680348153812 20.71804507635481 -0.33663337321298403
O 18.41602954131649 17.673454619495438 0.37749612309415304 0.6530610556085623
H 18.95248608342503 17.393117102282545 1.2037399624076923 -0.34944581274993747
H 18.737510460267 18.56059092195559 0.08714088467807304 -0.30254391456677254
O 0.27163733195916345 15.96666063731625 19.78684668578006 0.6411699895579073
H 0.09320026563609018 15.00013734036037 20.012278323158387 -0.3186064689624193
H 21.760896254254895 16.546827513089937 20.538652727827237 -0.31813333042668146
O 16.41027486139974 11.089215045410716 1.1009440990520774 0.6204337663882127
H 17.2568701275907 11.115763717724846 0.5759890156396327 -0.3140635958439706
H 16.539933761588518 11.554936212999305 2.0097234554000543 -0.3156922760156572
O 15.25171224057454 9.987266429754285 20.525772799006933 0.6585851249096075
H 14.63129581006599 9.226178598895876 20.61070732115699 -0.3156909379585794
H 15.7609206445422 10.1879031453292 21.382377237585143 -0.3816074567305868
O 5.975295376395287 7.2958310400442885 21.328030718790437 0.64612886424751
H 6.237603933493403 7.967522991159524 20.659881727539503 -0.34836891945348536
H 5.206540878549999 7.64169103323873 0.03975686530032973 -0.319024478144726
O 8.651445694711478 3.471544636306752 20.566556707798423 0.6089836781401976
H 9.254343894872385 4.096677203475313 20.082815293080785 -0.32795799997691466
H 8.850004579365303 2.543888144879673 20.294616534109526 -0.2916006478639581
O 10.08529078766861 14.562656324183685 1.5666907621507178 0.6632442178643423
H 9.61189863888223 15.266694301709611 1.0574243011992766 -0.33577162021347196
H 10.035720895292977 14.763439758567529 2.5585006612717502 -0.3141272528393688
O 3.2163698111477057 9.431106348465104 21.039194837225562 0.637392212155433
H 4.016863593900045 9.838083132230372 20.64312294589767 -0.32807752762634124
H 2.9641250320798314 8.604251731133374 20.511360840570767 -0.30713162728306853
O 16.324741724642333 13.773607798695073 19.430953060585743 0.7022283279405448
H 16.00449683632697 14.682676956776048 19.333436298879825 -0.3431820414669534
H 15.563726576439738 13.14748786595023 19.312359074069263 -0.3429492950694074
O 4.6346218753894295 17.435988435866147 0.019414434074517005 0.6486045706032515
H 4.954234239853456 17.814650850458367 0.8931936257827159 -0.3476375672730121
H 5.421074750909703 17.342043157302356 21.203649767023837 -0.3163669234927948
O 6.14491272590391 1.2266576187742102 19.792361384459365 0.675095228409055
H 7.086552956990297 1.0002398509098713 19.867955877051156 -0.31761185367630307
H 5.839227045954635 1.0642080555222944 18.88420189506546 -0.3328371847073879
O 14.340264034537709 11.882279728006042 19.033249262577062 0.716180428465286
H 14.66088865971624 11.124571229438114 19.584912733344222 -0.37890618678110977
H 13.43997163335527 12.166929168997836 19.339346091536537 -0.3388583287975111
O 2.967475723685299 0.3468984778114915 20.32694051793006 0.6219370749892192
H 3.448621364456474 1.1735576142237056 20.118622593680776 -0.32183604302365876
H 3.5563415528318836 21.540404772940676 20.772417746241587 -0.33376744273982173
O 10.324951100257298 5.48914826927383 18.775417642100823 0.6596876601114436
H 9.942808297568318 6.290818839608927 18.39726418486545 -0.3492891361156172
H 10.96229277217513 5.717252772849257 19.467639198065964 -0.32843277998885956
O 18.56587190351996 8.325306366999461 0.5654694119795698 0.6395842141057182
H 18.98156421186604 7.7033737031092615 1.209868266885092 -0.3256035565534766
H 18.170998544190855 7.79902568061538 21.632695330167504 -0.3321804542105713
O 4.874850262250901 13.854173539098907 20.351177374423955 0.6977440304668701
H 3.9976102305991015 13.715658584609422 20.795190563944203 -0.35749201228351346
H 4.705505881819351 14.10026922057258 19.42649499255645 -0.31544622113138643
O 13.902131002247044 5.7480029495859215 19.41094440044591 0.6513924029854978
H 13.361099968701291 5.55111442743566 20.209745999924444 -0.34934542718153616
H 14.790611074347787 5.341752839478131 19.498196142438996 -0.33267546746662935
O 15.816766246502784 6.396041773070231 1.5095427966682202 0.6318944203851746
H 15.493596691662054 7.0074068059601355 2.2472388571168245 -0.3357867148666569
H 16.326281991210998 6.886082288502397 0.844202897799156 -0.31332750768342654
O 15.396022610335608 2.741797301017266 19.86793213461047 0.6764405231191972
H 14.796082139167764 1.9833589031579997 20.12141226508492 -0.3524835903252783
H 15.615703041630205 3.2363847195282256 20.692460601568797 -0.3468104593365471
O 13.035168189105327 8.386420829988335 19.043304950808867 0.6964608403778527
H 13.36821707440009 7.492353760060699 19.201407440230412 -0.33522481768686685
H 13.208319233957493 8.63366912232269 18.10145579892845 -0.3588331120802196
O 8.146506068330407 5.720093231905617 0.037060014169744915 0.6962932053677324
H 8.227540068113928 4.849334328204272 21.434859903509054 -0.34157240756377627
H 7.211612276425807 6.0302265187468125 21.796346165364696 -0.3278193762490529
O 4.723410181866362 4.999302263080524 20.524614347452857 0.643266755529007
H 5.312490032566158 5.782183555960287 20.566533537253697 -0.330648495973488
H 3.777620039150694 5.299492400748678 20.5499134996331 -0.29121578915011936
O 17.2613927215824 1.3565957702200953 2.020804883429638 0.6198759367735125
H 17.96503219746887 1.155192817217234 1.341937778245971 -0.3120578038321212
H 16.948084581522917 0.45448333319564277 2.430440744366738 -0.29602462839416765
O 6.721641086778149 16.155678042320424 20.164316929198733 0.6901637017581885
H 6.816997313744566 16.248235193270528 19.175958120872103 -0.3609175868584652
H 6.327766853430521 15.273453968718535 20.363044185418765 -0.34614900171205587
O 11.943428656417806 16.116509725276337 18.934300657742327 0.69908081594376
H 11.991494570266626 15.20727256700639 19.307970522510217 -0.32561425559654844
H 11.346922677358855 16.153532424236296 18.160541896974987 -0.3531022806700068
O 9.157783845100672 9.105181121403417 21.53313671997258 0.653224949747214
H 9.774606197219418 9.446637511990604 20.846853339112652 -0.3271921027317195
H 9.55573513826172 8.276701425241392 0.09150329060689477 -0.3102624913395431
O 15.042244971254682 16.077417097227425 19.056220163630233 0.6650436380088394
H 14.12203359126131 16.453452350327026 19.13143517142588 -0.3252094230728275
H 15.402565304707318 16.27264025778908 18.166297942764256 -0.3476379708298656
O 2.557177737505432 13.474505777641701 21.522295097632504 0.6535207661155429
H 1.5850527645694559 13.497085582728467 21.264926152459175 -0.350062062869007
H 2.655846254236727 14.008319868826783 0.5434569533661248 -0.3387762187618758
O 0.7562418840330142 3.443017535023532 18.948732447427226 0.6374107978474974
H 21.64344959827116 3.1485561269119273 18.670590342187687 -0.30265338427680055
H 1.0643470768181473 4.2011905233022535 18.400208141960057 -0.33863079836497856
O 11.830286850249374 13.356298380060275 19.812766369494813 0.6630671577823675
H 10.883485707022505 13.239639713240162 19.843250184198123 -0.3397979919950903
H 12.173109495760391 13.491721580125438 20.72891261031563 -0.34702465915543945
O 8.590751321741246 13.735763267191238 18.777477302353507 0.6487636360270743
H 8.10539980614817 13.884723859910961 19.65338251479695 -0.31432259310876154
H 9.031708905064304 14.565637218992357 18.502343216525293 -0.3395694751030701
O 10.827780310742863 9.840368964646862 19.487982162008105 0.7109640572135092
H 10.610580434473134 10.372615972958304 18.69863078143555 -0.34167266994217815
H 11.632308672614197 9.281901782256472 19.309288961568843 -0.34719428310400513
O 13.514119965723019 0.5241728892553135 20.30506163950541 0.6635688412299334
H 13.888642289976017 0.11493127574871827 19.504736645173196 -0.33834486884295323
H 12.642080841928864 0.14448197345660055 20.510642569796346 -0.3179442050092296
O 0.38869839254683275 10.76750989106869 21.624379419595655 0.6201162040423505
H 1.3620604992428778 10.66461394084591 21.540837779824695 -0.3218618862623813
H 0.00018737390411871502 9.928259231294946 0.10870910155760496 -0.2983848113046331
O 8.749490760755805 16.460582701952383 0.1621891037158726 0.6736286304290928
H 7.987357315864701 16.139248746579767 21.443108513175964 -0.3456298209829076
H 8.43355371196937 17.167235752643617 0.7888557181021006 -0.3446859387720086
O 4.37445357862817 0.7074849650868522 14.991742180427632 0.691576319767826
H 5.19812690322685 0.17997171405682233 15.082007582057269 -0.3462164327468774
H 3.5824494716152384 0.12870433630371586 15.037630470903002 -0.3195390720492297
O 15.943217148068216 19.763084120812746 14.80296572341728 0.6649265572497978
H 15.744520811786446 20.416088875502002 14.087894853025722 -0.31694647936809783
H 15.888665832672883 20.217793864961557 15.674201703229983 -0.35228634414181004
O 8.096351577420164 18.65322930767087 5.021448503590393 0.7098036429659613
H 8.499468414764948 19.575053492294494 4.964246872821206 -0.3460300804825803
H 7.087892124227209 18.73155128844066 5.053300026560976 -0.36398580905055355
O 12.807473807686396 0.24214811049227897 9.442968527455383 0.68510063766497
H 11.958071693893926 21.59413124946138 9.286832144959364 -0.3220291166785614
H 13.424379874250453 21.541287722267068 9.987086533931604 -0.3536913691648258
O 5.498796801899386 20.581730738942134 8.851098438148158 0.7075093448820784
H 5.457691668356051 20.537437993134596 9.820075197397673 -0.33807329749740767
H 5.489106576297759 21.5170669416792 8.564768271210403 -0.3517446617918968
O 2.0210928008930624 21.477098747617347 14.984943861903123 0.6274320360189325
H 1.265596117323268 0.22856652064584948 14.853662459542548 -0.3267319469983757
H 1.9053378248663768 21.005133035446093 15.835242433944806 -0.3358292136089821
O 13.99839206459793 19.69442378933749 4.256138505287884 0.6586059815826903
H 13.737311950213813 19.329477364799317 3.3992512413047398 -0.3516093445867242
H 14.979559062235982 19.835613463292145 4.29688743115273 -0.33138216934515696
O 15.47038642793705 20.839105026354765 17.293698789222717 0.6796730860017846
H 15.418130377293764 21.218831524266133 18.19840200645131 -0.36169258327620546
H 14.738826971820702 20.159000369151148 17.159418006971944 -0.32405632740045986
O 6.1392960533869445 19.830227571593447 1.1664349871935622 0.6366009020031065
H 7.102123682822708 19.61879335301049 1.2155394554984176 -0.33059167247671306
H 5.835451302241201 19.668779172511787 0.25882267052982866 -0.3167345776649183
O 7.807471481961021 21.26557234705664 17.497730560002463 0.6478115768124049
H 8.499930162672511 20.656942242581756 17.94416119505268 -0.31390842769083416
H 7.099201943330762 21.46600733221186 18.1268325379115 -0.3274497787893105
O 5.3932910289542395 19.267316857650073 5.118062994421284 0.7664225211675388
H 4.5713941159353295 19.255033807597847 5.699213286340899 -0.35176296753570313
H 5.439727598953562 20.094574817503144 4.5891088326111795 -0.3885833749425237
O 5.617480962326181 20.839489360638833 11.473599760335913 0.6703804555768205
H 5.985169190313526 20.022949185269947 11.83402479918523 -0.3213206401082789
H 4.729405551360898 21.021130065376852 11.894020368273234 -0.352930617773781
O 10.162766883212667 19.011342129889872 7.5342477584980445 0.7015538209368044
H 9.428397787641401 19.056368740646484 6.83872006494624 -0.32479216161872393
H 9.93001627424364 18.32377337544922 8.222282584280835 -0.33898499557110384
O 5.267216300285143 21.18358989768487 3.278456686127036 0.6691529701209422
H 5.532409261135489 20.57827746221553 2.549391092146243 -0.33271980086874575
H 5.26552149441763 0.2880608679823474 2.976586188056681 -0.333962126306354
O 9.145461160239726 19.514284418959473 14.02667791002405 0.6909162404498339
H 9.423142377048077 19.32363795122745 13.089751080080264 -0.34113838066098334
H 9.860830294670444 20.10118572344109 14.427340486539647 -0.3220653079098048
O 12.736908309569554 0.6511020604940722 12.62206481113616 0.6624197163284204
H 12.968863501105222 1.3668329171104152 13.244871703025916 -0.3430030169068762
H 11.856938242562892 0.8292667262532301 12.225674685698438 -0.339529644874626
O 10.127863812355109 19.66797858701389 17.698341817004913 0.6598335030774685
H 10.19085838993157 20.514989099341093 17.19263862828912 -0.298176725441362
H 10.44395326154193 18.924577723380985 17.150534764696232 -0.3650347528933957
O 5.038714503725116 19.12521788743853 17.39944836103394 0.6879003934399011
H 4.611019700840958 18.545666188953117 16.718610484556724 -0.35918338224529034
H 4.377481395328016 19.80670056852323 17.73177156952479 -0.32682352494259137
O 3.0646358202889403 20.750421976137922 12.31328613985966 0.6729286539355117
H 2.827851698187483 21.119994882132005 13.198175772318422 -0.33152507938717
H 2.7790950793265057 19.838344924032324 12.246470313106622 -0.3553741816358077
O 3.072147116739746 19.247311556771905 6.175652232038675 0.637359938834134
H 2.9773080591786414 20.173317168427296 6.505050840769701 -0.3429525466539487
H 3.0121225287602718 18.611011697145162 6.92768704916573 -0.3405580219314789
O 15.39413719415802 21.36345860723597 1.250537373327798 0.6554574187564004
H 14.830241208995583 20.613685780901868 1.4738994645160652 -0.33173786100729497
H 15.618944494361875 0.04710322855712384 2.086521723639297 -0.3349927526598554
O 11.60222463828459 20.69130932128662 14.76699072636668 0.6318170157235672
H 11.592662329355107 21.341930676733163 15.540347946425086 -0.30856363239027496
H 11.891837941277677 21.153250309315194 13.951508317500014 -0.3325627304956946
O 9.030333682108532 19.482161947116516 1.3315575634367138 0.6375942295563855
H 9.553454946511907 19.49537120527743 0.493560574675227 -0.2941827845927021
H 9.613265455112606 19.091253865114673 2.0440974571821195 -0.3460637980777904
O 17.263235723184433 19.96424064883579 5.229153820030217 0.6966062430130275
H 17.97848374663247 19.812265446777143 4.589415274030901 -0.338103217723028
H 16.97661230482014 19.110371230661517 5.59631953167463 -0.349599839425216
O 18.41050100096512 20.371668242347646 9.631904871350434 0.7282150401380623
H 18.825061179355828 19.518812409339304 9.292039888116308 -0.3656674108741711
H 17.437485954850388 20.396242416627178 9.435740283333024 -0.3588861501839866
O 6.7257639154853575 20.646995058694294 14.891245144648197 0.6814670574860706
H 7.599441245810659 20.501029766604617 14.481312798028991 -0.34978997345818175
H 6.7998146700067 20.70150401961435 15.894976677085571 -0.33382759850206956
O 12.249178083015666 0.042165721200410206 4.4939915046002605 0.7000416685935589
H 12.893743452425703 21.1274319757971 4.39105172026998 -0.3190191174232332
H 12.44774800044454 0.5319662213895692 5.308707222453572 -0.3565948266652714
O 17.769371457174074 0.20920242641107967 16.422870057849444 0.6938376642403128
H 17.580961174189756 0.5064485167588572 15.517946474911932 -0.32728603569409587
H 16.94085084251949 21.654946081334984 16.79198941509075 -0.34207925207108336
O 18.236431745360868 20.540377951575312 12.272302168591683 0.6982218659053316
H 18.216887062679003 19.625693768612077 12.730740128753117 -0.3048530715872698
H 18.274377516548153 20.432734461369535 11.281945223564302 -0.35417409954098067
O 14.244754454318082 20.762541371664014 11.1260514376935 0.6693630741368075
H 14.741261722796983 20.158550663489844 11.664265785395758 -0.3342912400086371
H 13.750915653672976 21.382913492582492 11.696309447583285 -0.34999355632823836
O 10.007515500457162 18.960922524280086 11.54004360806162 0.6673351394231153
H 9.375844308491128 18.25335704078738 11.222596377964505 -0.34205378768476946
H 10.916605840323374 18.604780534540748 11.539240651599439 -0.3514229874110232
O 13.524199542271385 19.138143816190958 1.6830254996264349 0.6679915485503551
H 13.874607997994095 18.736118741531126 0.850136273240643 -0.32418718774137345
H 12.60930322334559 18.75833979717489 1.8542724012187584 -0.35346488219382444
O 13.000583367874999 1.3196898690829404 6.912703101416927 0.6559411227239957
H 12.430007237259879 2.0900724223390093 6.927417250529345 -0.3192069026592034
H 13.128130035695724 0.9869602253875812 7.8285404999465005 -0.331734317067656
O 15.925213318590261 20.833562530572486 8.816767197673814 0.656850333113284
H 15.089161680567225 20.835075116631565 9.353158267988604 -0.3405299036409496
H 15.970444154224543 21.63837290492826 8.280610523764873 -0.33696492681334833
O 8.649469745802445 0.2714514473872032 20.569544934591423 0.6037861331916536
H 9.248231769889088 0.9103241452442912 20.10812383168611 -0.3087468026724117
H 8.83925624476815 21.176378187669187 20.250286047330462 -0.31586079502484266
O 6.138996252336439 19.83705635264737 19.796937861404814 0.6677496418430611
H 7.086929334931689 19.624434937040554 19.846847534044542 -0.2974010229792775
H 5.833745391476351 19.6618551162954 18.847340774102683 -0.3493955715198005
O 2.9705181758955947 18.970883110633732 20.33336339609848 0.6618543640093542
H 3.4633700415108724 19.801886653228316 20.12868908520303 -0.3061970004932185
H 3.5832682598179533 18.323004992127892 20.785471140031856 -0.3417761065420962
O 15.407470306614462 21.36617318402778 19.86744482990146 0.66667127904583
H 14.792037951375416 20.61296334048284 20.095584472130064 -0.3432184834250507
H 15.60287765099946 0.060332609841305826 20.709629201622707 -0.3585332374189316
O 17.265508606737423 19.964928242056228 2.022776602297844 0.6354233124251518
H 17.966738779664322 19.801272519268146 1.3734211659091788 -0.3135790803215244
H 16.975000548787015 19.109986077206887 2.389771282325666 -0.3197920040653275
O 0.7429242893477379 0.23725482064188963 18.949619807712217 0.6065971009883526
H 21.672102822687926 21.797402235507654 18.667162842798085 -0.30488191721955105
H 1.0580422766130395 1.0129684420464966 18.39779339371071 -0.29929349085835355
O 13.517885828552995 19.135274346284902 20.293763188665874 0.6592560908723994
H 13.885924321495402 18.733177894850837 19.469206862038863 -0.33194246775565095
H 12.626725176555569 18.7736784699652 20.524475903590666 -0.33785535749858764
O 20.9190172190323 6.280356305777738 1.1270568967163042 0.6136048053847913
H 19.99086945053625 6.269000613275964 1.4827143657745046 -0.3098609441864252
H 20.933996273004826 5.877617398790814 0.23107457340858442 -0.3123349888474256
O 20.868916700012647 2.7573656421299715 9.961995897461113 0.7474575409221629
H 21.22579394985462 2.564505957810656 10.895874905859676 -0.3452789160634334
H 19.989081067980347 2.3234431190889278 9.808675064151137 -0.34962267669226954
O 18.80757107003979 3.685861763529681 6.467361464052905 0.6461652193278713
H 18.007953271070846 4.116945087650111 6.876763850485747 -0.320702695320094
H 18.544679286529362 2.940314086803477 5.8377238556706335 -0.3471712153013785
O 0.1479303622286318 14.354677254794902 10.61219816878259 0.6588532305797283
H 21.195932630220824 14.059990505278325 10.071366498613614 -0.2979229603819864
H 0.6709228852943387 14.93795327288866 10.027237338530671 -0.3347350890666708
O 20.929335307042034 17.13098564657256 4.82501392790724 0.7014878286987729
H 21.285551749119087 17.92336161551211 5.36997764356916 -0.3596402578762651
H 21.357816595602987 17.121077978567584 3.9047363225150735 -0.3189830927413222
O 20.922109769257606 14.348440003214444 5.382109895467987 0.6671371836595359
H 20.66683183601361 15.294758021295802 5.3878190438867 -0.33075487215762267
H 20.19544854683821 13.807732162149117 5.82376621702015 -0.33058791755579997
O 21.020024556547213 10.911193194448037 8.861883543055418 0.6809613263807179
H 21.167001686899425 10.110090433994385 9.388112499300723 -0.3262385988500288
H 20.483497159582182 11.542776779245266 9.387495250596327 -0.34763827799006175
O 19.840660372441384 6.430032007700323 5.634807705628988 0.668366554640345
H 19.38085868743713 5.564720169709942 5.812450204003635 -0.33495035875302104
H 19.831371150910524 6.968670884965162 6.474241782140247 -0.34134283901768114
O 19.759970443693373 7.365892822429267 15.969238411467803 0.6548922255875702
H 20.644986423495066 7.274746008536559 16.408626430211044 -0.32792334863177797
H 19.598067033611127 8.338499700751195 15.749086117261177 -0.3539716848005048
O 20.590510188712894 9.761625697867558 12.63706882238647 0.6775812911851995
H 21.49119434871031 9.325705742967443 12.502417351280025 -0.3617307981525971
H 19.872223568943138 9.121757575700652 12.45301531899456 -0.3212580781928165
O 19.382658635659272 8.106766611808803 7.889591756554404 0.6837416967810102
H 20.361997572398273 7.996629805839767 7.976272782488201 -0.35702605701823065
H 19.13001511064491 9.044916439629166 8.069713332422095 -0.33768662920714976
O 19.923691283029353 18.21544525123516 15.714046833658522 0.6767406702806813
H 19.827950095294742 18.09832401785095 16.686756891354783 -0.36703051562124667
H 19.077060217315264 18.562855126428648 15.349948887517094 -0.3106590484387408
O 20.635182160956933 2.850896955839105 14.98923990180731 0.6621689571727263
H 19.824939297872177 3.4437459575437512 14.873014991900765 -0.34236924502221056
H 20.54400387477596 2.383745691517955 15.852267458617325 -0.3262526091522371
O 0.6144619506183634 7.002283580364582 4.801606528977182 0.6950517942375933
H 1.0861782146819974 6.063916635469037 4.80487585292801 -0.33074532676544754
H 21.49978186685281 6.88362676346945 5.097012530953849 -0.3321628030702888
O 19.400876854583853 5.563215160963747 13.865139083221168 0.7200099107223794
H 20.2944491092768 5.524233132342624 13.45785177950879 -0.3589900713317622
H 19.34069139046989 6.281250903194917 14.52294623770452 -0.3532263320207626
O 0.8860031468491546 8.128111931350299 12.510715215576656 0.6551066433529771
H 1.7433134003782869 8.255425420720421 13.018191124901405 -0.3362082823650854
H 0.47057519730031455 7.262625093107332 12.772488433176145 -0.3329865145601347
O 19.262774543843253 15.637946046853823 13.320078429828694 0.6352011325080733
H 18.79354084908906 16.43000375423311 12.977346696997571 -0.33470415046884205
H 20.228869416889477 15.83722082941147 13.382677218180277 -0.3448067512339328
O 21.695181703086114 2.1234116407737753 12.314335122448197 0.6371075742978629
H 21.454063635649334 2.5028382920577976 13.193283761058883 -0.3312852701396717
H 21.403299400342387 1.2047844862255852 12.224407817319877 -0.3404292230262992
O 18.9963618867215 13.099519652727713 12.81776762504686 0.7125042467448734
H 19.514147874214423 12.630585845360686 13.514584569237151 -0.3404184401724273
H 19.23469845593944 14.07651901442776 12.885934789028916 -0.35743018275286587
O 21.810679771573234 8.100301901009916 9.503139295517778 0.631092620961585
H 0.913920391479993 8.4580400445861 9.510368946731074 -0.3363285605106878
H 21.75423307009886 7.248670616667079 10.015843214323485 -0.2990156627614373
O 18.69736133793412 13.254805674989068 1.9968619374430767 0.7063588759932848
H 17.766039500030292 13.465024798707892 1.6984446815744876 -0.34856988913221676
H 18.791712074728252 12.271593817745222 2.1224386246495133 -0.33845494191121295
O 19.501382546644447 18.004777687113073 9.272143078396443 0.707891024143751
H 19.089584465147013 17.159780888701054 8.996331976206147 -0.3741042225099317
H 20.428154721390204 18.043756192774122 8.939195387641938 -0.33848967912712347
O 1.8297513563092531 15.683077480350418 9.100311199944379 0.6474491148473049
H 2.459990666630094 16.399151462135514 9.185308673954081 -0.33897971521144366
H 2.2564483782129936 14.90096874436959 8.698062381311738 -0.33118421326002534
O 19.023308156402017 5.442896926866768 11.134756822275337 0.6769883732883768
H 19.86356318190125 5.145676460616636 10.71564827497851 -0.33851440454527004
H 19.12980343367009 5.572034779356151 12.12644370360875 -0.3353514317121763
O 20.507144016723807 5.200758739945658 17.221268928912927 0.6660538099662761
H 21.095501152183523 4.819336775604144 16.54242313704367 -0.3208680978526982
H 19.949243409590082 5.89035194001475 16.826210991809642 -0.3653042823216748
O 21.14376816341394 15.643386443842392 17.433384870980245 0.6556450432934415
H 20.845163430346616 16.19098225374193 18.20175684068116 -0.35255146241845137
H 21.06713076510223 14.70237145002363 17.71977866651623 -0.3094144716477597
O 1.5195349998902699 5.0025651676683935 1.909410567923429 0.619888621921433
H 2.1115777075970823 5.8196366102223696 1.9669866540965921 -0.28678037794469924
H 0.568005189508896 5.309171776231199 1.9974533301246724 -0.3270910054124606
O 20.208677852207735 11.359954530275017 14.656098441608345 0.6889067845754413
H 20.410766050774395 10.733820196792061 15.429045464718666 -0.3327722891091547
H 20.30657214645618 10.879151738504328 13.790204658444331 -0.36501843262588485
O 19.45264909699374 12.584237140607698 10.225290618011107 0.6933360570631653
H 19.392127625934492 12.556260324138913 11.22543212456501 -0.3595639213082894
H 18.609102981118337 12.18725833217763 9.852103380402568 -0.32901356809414606
O 19.92075924888547 17.934454032077507 18.513200897234146 0.7479478001370827
H 19.516579895138698 17.228442294456503 19.011545013986204 -0.36350878886651083
H 20.565025495277453 18.422078563168434 19.09588252829878 -0.3553692144270061
O 21.252410564055534 3.2580105915467863 7.203477921612078 0.6991401647995925
H 20.47678936043696 3.760208406231251 6.859972155886838 -0.34444505941865955
H 21.153611849508813 3.118810272625981 8.152289302470598 -0.33930495256396476
O 0.5066240246441601 12.888356114860434 14.901996687912373 0.66426040639496
H 0.38630950424238053 13.756689993232046 14.546497369319061 -0.306139625879028
H 21.511381999395518 12.358723083620212 14.779474924489907 -0.32423602693913955
O 21.169139260199632 13.482026432901696 2.8982188527335278 0.7346745128409582
H 20.223092894251014 13.508447337491916 2.6016586926761676 -0.35412307272574206
H 21.287478831402765 13.99784663253736 3.7420813123868126 -0.3336049624265549
O 19.674350882625635 10.131518511384348 17.26457786636961 0.6699712433093925
H 18.91462834955524 9.775702375308896 17.791173046553244 -0.35907296106534514
H 20.498505518213978 9.822236658947737 17.68022625006496 -0.30004880883538565
O 19.36938505420196 3.4496419525888458 0.335811053102392 0.6214646035635276
H 18.48390589457748 3.1652108536117245 0.061968755300610766 -0.3102975088500951
H 19.70263274829271 4.200632724716062 21.60785999300199 -0.3123372700821141
O 19.34879961084508 1.6614934437624613 3.180060964534141 0.6457003857028907
H 19.20009052571941 2.514078699056559 2.6329451560041597 -0.3329723386373993
H 20.21906826613728 1.29139134810411 2.9773997778388823 -0.32183418070648073
O 0.6916980008480899 17.419654658251353 15.603727309758428 0.6947859582171825
H 21.61303615670102 17.828523793046575 15.600751720760424 -0.3458841872199786
H 0.604964137622243 16.462347501058147 15.921860269530685 -0.3589704711741407
O 19.405726231278678 12.400672124645002 6.533472191032899 0.6632035266171599
H 19.411963060472836 11.947818930715677 7.398703016676711 -0.33562731642024757
H 20.224438596034965 12.141820513300829 6.030734733883696 -0.35621503809864274
O 1.0679201917560779 4.242585252920548 5.192598186469465 0.6692781466365334
H 1.3547488723328527 3.5182259337911335 4.591194808091947 -0.34107836999897434
H 0.6688253522944103 3.8357482439456283 5.983223584114985 -0.34540440038896025
O 21.789871279554134 5.470506666251289 12.798618840943256 0.633277915305011
H 0.3569366208866972 4.884457053082001 13.505264053468746 -0.3206976031904575
H 0.3752990030062298 5.2159315776553505 11.937929834727896 -0.36190096271744354
O 19.008542668478018 10.77280080120748 2.9952177863941563 0.6977165254836883
H 20.017746646844305 10.668715748197819 2.9248784033381834 -0.34720901641760815
H 18.612369160297156 9.929173536870504 3.3092371552397175 -0.3484205168263872
O 20.915811796320476 6.279222544642358 19.75200547334878 0.6598815677802374
H 19.97986350284045 6.267325665377841 20.12730040974771 -0.3157280981531406
H 20.94628152585625 5.910458146262414 18.85291882942944 -0.3402130138686942
O 20.932732826192023 17.133744099161543 1.6167519253756315 0.6239908672239993
H 21.286679963628277 17.923083301521718 2.1405635323529215 -0.293461610954606
H 21.39297073305003 17.11927576236796 0.7309621552333807 -0.33487692598885865
O 18.890688787271937 15.958041214541241 19.7989927655101 0.687693640514417
H 18.687875887908177 15.02716561668832 20.016863963160574 -0.36257224286260414
H 18.59300988085108 16.5121167929669 20.514692657869347 -0.3324244522627444
O 1.4317466957252138 17.43059872677116 0.019210878458529042 0.6930897074264557
H 1.7436835549752747 17.79389357661387 0.8696687727955812 -0.3602299545630422
H 2.207623552055584 17.356690421115328 21.2019392693834 -0.3452311118686773
O 2.176810132027676 0.6400819037753521 1.909275802151191 0.6463173775998747
H 1.3897033484983048 0.6678665657146969 2.4885645669003673 -0.28324918310370406
H 2.159807701150784 1.460240045063873 1.3798604295553636 -0.3438625865737869
O 2.065918697913102 2.561565612128963 0.07231200979956129 0.6563889209398965
H 2.3295577056653047 1.9596496492210462 21.160867173478014 -0.3086576478464629
H 2.089012569042496 3.492439603004947 21.584931361201175 -0.34907685564625135
O 18.697290345223767 13.260757918278586 20.623756647030298 0.7219113795319592
H 17.77995384647458 13.489513279719711 20.309436983025694 -0.36243348135736786
H 18.818080906274123 12.265104255272444 20.748375580036427 -0.3558687206214286
O 1.5292232309246652 5.003216047909304 20.534409067955625 0.6188409006222724
H 2.1274506522393435 5.781337954616483 20.585022913554344 -0.29346849985635515
H 0.5878147625085931 5.313997561256439 20.56871002013604 -0.32891661097196145
O 21.164884476885067 13.48532049797601 21.51938311143317 0.7107378905907815
H 20.193083231781085 13.497441645726857 21.271045109405105 -0.365674666265262
H 21.286490021327907 14.00245910958573 0.5167576024108204 -0.32123756641770085
O 19.37528820612785 3.4523843230854707 18.952862683708574 0.6751711916656573
H 18.434013749335925 3.1673865239835166 18.66551666055597 -0.3142369689545629
H 19.70228868694276 4.20427930317197 18.39313306196884 -0.34038109941089356
O 19.013328017313384 10.76584481826218 21.622529725032305 0.6854030048982755
H 19.977274736655314 10.648117187209442 21.529715539764137 -0.331987116158595
H 18.650100207167487 9.899528597123352 0.13067972907163428 -0.3515901983246388
O 20.86874205649171 21.369140129800186 9.957103363592994 0.7368815506278095
H 21.239056444787984 21.199112899605336 10.867578504610602 -0.3521377314530765
H 19.99524295064451 20.92857679497349 9.835747567093152 -0.33857942643498895
O 18.81381864945241 0.46867778340327687 6.476437481969778 0.6467236219576389
H 18.000988105712516 0.9085097856361003 6.841323651469637 -0.32804305710813786
H 18.540017453230135 21.564654958375435 5.858653757978999 -0.3298479425038068
O 2.2935325530207757 20.576864925815777 8.849807499241603 0.6323842378592861
H 2.25363359218361 20.519867315461518 9.844710370715015 -0.32287911868043806
H 2.287946095659093 21.527937125061154 8.558977293292779 -0.30990643269318097
O 20.638724679898694 21.472870452671003 14.976055094989484 0.6518967669463684
H 19.85583699617801 0.2445283913567066 14.865483515065371 -0.3268651639492782
H 20.53227376028581 20.988527391941954 15.815603410079154 -0.33617253875715225
O 1.8256957803422937 19.121497619671853 17.40342575482949 0.6778068802616266
H 1.4224021440465464 18.551472600429722 16.689359612287582 -0.34562934495192166
H 1.1676779601379919 19.79919583725197 17.74150194904292 -0.3014537633230151
O 21.691662350550143 20.74171968105031 12.306528773566495 0.6360436891797185
H 21.430337888024095 21.117798286143863 13.217941727234692 -0.33395571603909235
H 21.409065375167174 19.796271836700573 12.2393988362006 -0.3333227266955845
O 21.694272462520008 19.245224296670994 6.180443490786292 0.6515996042814596
H 21.586787485709344 20.203446275528684 6.502100980552879 -0.35732916702848116
H 21.614567526783098 18.649450073008744 6.976396837429763 -0.307793797580314
O 21.253950277175765 0.05656817724008662 7.205217484297271 0.7097820696005179
H 20.470655685472924 0.5364333839653213 6.869924412844738 -0.36638743505464455
H 21.16091642748866 21.696098642115693 8.174833596763584 -0.3468910392019351
O 19.366780772799643 0.24737455098625716 0.321113789683389 0.6305550925622807
H 18.471598735253362 21.796149750034928 0.03461596392728995 -0.3047298635523741
H 19.666460734783154 1.0111089086433698 21.600162430737537 -0.3392658762042362
O 19.34454842218023 20.282729201764173 3.178574548939358 0.6505812473485886
H 19.132872355002117 21.10109468753943 2.6619935735273526 -0.34883731683040786
H 20.226911446068378 19.934766140268188 2.9755439529692143 -0.32105275317354065
O 1.0711954469867968 1.0307085274091219 5.205648916054795 0.6507729059022527
H 1.3627789072921255 0.2927635894787771 4.56545790244621 -0.3034782818146833
H 0.6895655411494386 0.6153899562911137 6.023551542533879 -0.33252363234230975
O 2.18498043207883 19.258621441500825 1.9036922169984476 0.6694413944556104
H 1.3791158345330292 19.27123268326563 2.4977483713840023 -0.28464750034803443
H 2.2171059427702002 20.091222904064665 1.3676995607278595 -0.377522319926638
O 21.58823610298611 18.972950980231488 20.32465783677114 0.6829062809960078
H 0.23678882627791653 19.79866916046355 20.122934852318348 -0.3329641661727296
H 0.3984885382659868 18.345899217641346 20.77727905709328 -0.35381850816450267
O 2.064993131354064 21.186009584455842 0.07099541555925779 0.6912578625351662
H 2.3184626019681525 20.601449629444197 21.1831899683611 -0.31094303172701676
H 2.076241548637326 0.29020744018289896 21.565414780152928 -0.3721254791701225
O 19.3660278306708 0.23957337123646213 18.960140029553763 0.6264740017345165
H 18.480833012288887 21.80278661089734 18.65965569485707 -0.32497737846909147
H 19.695539676001463 1.0037498992773324 18.380717877889712 -0.3020518474024403
1032

O 10.727396846705703 10.733719910273228 10.913027879445147 0.6849571116511122
H 10.293798664746534 11.590263540208765 10.927589877811538 -0.3628022808931083
H 11.70471091379931 10.431299438209766 10.912356229300512 -0.32256316289778975
O 2.244643706103621 2.7488426112731648 9.960702097466687 0.6922285889257509
H 2.6024855661706163 2.603128049113938 10.86431903477697 -0.3614507920767638
H 1.3920671406304495 2.2800247268956944 9.843571884424447 -0.33281407094857907
O 5.6907288166240075 12.753895534956039 11.648825992456068 0.6638556785660183
H 4.759248389087859 12.668396282952918 11.327187876102046 -0.3316813904950704
H 5.814034768021853 13.609414904782717 12.082138743507832 -0.34105377225431066
O 15.544694407188421 15.109553073990304 7.031066112515138 0.6765371231133717
H 15.019633700425498 14.99369727223521 7.803193358406283 -0.35458911902568746
H 14.992874224924318 15.207140956573465 6.245033108343495 -0.35692710596464283
O 17.435645853904624 6.167873124660341 8.557882137872928 0.6535272062029049
H 17.75153088226022 7.118692869537725 8.595948548023328 -0.3294666192777116
H 17.94614856546832 5.656633345592452 9.214024700866377 -0.31557701519784653
O 11.354834164936213 7.0352469861278975 7.175550072379847 0.7103779657478251
H 11.906906251860176 7.7590398709769905 6.920555202383595 -0.3507965549705728
H 10.783294226792377 7.275073919815312 7.951774283984226 -0.34766173668780365
O 17.548284235960672 6.067771450384656 2.310139297533298 0.6681808486667649
H 17.429196108037726 5.902609809337672 1.3257780309348357 -0.3191800545077428
H 17.240233275434946 5.280536970077942 2.774135326684559 -0.34977180356008286
O 7.676888254965565 11.443142644534513 10.228220523122722 0.7038919708157652
H 6.906565910443534 11.594501535502063 10.822737842464866 -0.3435081164486835
H 8.016626357717467 12.332870275288167 9.903727053042774 -0.3534299705377929
O 8.498249198562597 7.98813302103401 18.227225941822088 0.6742241235058639
H 8.487150897607124 8.745346513129208 18.877191059643167 -0.33704104460952655
H 8.707699919116957 8.35003684558429 17.353700461874013 -0.3359261250724104
O 6.852594199256062 10.117490940220659 6.646573933015454 0.7183469956007436
H 7.553895456794429 9.978425626257781 7.365484215258423 -0.3529824204699732
H 6.095588696077262 10.65243839695023 7.056688972679763 -0.3316034442072642
O 6.862447451195549 11.606055140275407 18.035274752673967 0.7180596441837146
H 7.424801556571607 12.397821206010931 18.168256174865828 -0.3486858803548265
H 6.049207197222915 11.913905983744279 17.63743232003416 -0.3551126493646778
O 3.34648748256882 14.350086862444606 10.605831370637787 0.7079910085328347
H 2.5796826451707893 14.035499450603444 10.106932782724872 -0.3364354742123268
H 3.893641987760163 14.957310433748207 10.034665468595051 -0.35088752867589623
O 14.611792458234454 15.051421573933599 13.393052981914876 0.6616710814566922
H 14.845630454187322 15.998664491581923 13.659440688987011 -0.35354701106491115
H 14.479858468987638 14.532126716497674 14.187471973841847 -0.335998709153005
O 4.376356706671271 3.921491730155921 14.989377051933744 0.7111145045534233
H 5.181639229127313 3.3246417361545455 15.048938055489785 -0.3573740896081663
H 3.589409991546996 3.3682640755830255 15.022791783989762 -0.33503268930462926
O 2.3035287691696325 17.131006572141057 4.829562623893222 0.702645244593878
H 2.645921416280699 17.884181031768616 5.333102359560762 -0.35202335792458006
H 2.7356884621183815 17.13019267077062 3.958369264278045 -0.33688494581902284
O 11.270030051953363 13.411739825005554 16.90325035579218 0.6962541795878652
H 11.724734542533396 13.418466327611624 17.775353552004322 -0.331789221452928
H 10.78182133958243 12.561494250089487 16.796052554915157 -0.3595109697209584
O 2.3115269218957413 14.344792668996242 5.377975465706083 0.6994685825699545
H 2.05966096760691 15.309874776280747 5.4005724580185746 -0.3452695950891709
H 1.6422832448087001 13.801303383575204 5.806447271918986 -0.3534728598793323
O 2.403459354079893 10.908573103671378 8.855835350750253 0.6874840327839307
H 2.5016083126346205 10.080179269372445 9.335289603744155 -0.323823164343511
H 1.8725638492297823 11.514742144001788 9.422350361898413 -0.3455151584469095
O 6.199336667719719 17.869293094075278 14.386417899083776 0.7102364111122546
H 5.271691115078729 17.723373545282342 14.745099917985277 -0.3438434862602062
H 6.484402868306304 18.784021083525374 14.666147525251946 -0.339359515987971
O 6.055789373115731 9.640478784922339 1.2321781564393341 0.6779356620316266
H 6.1476568707653225 10.470340266027565 0.6947992982946579 -0.3129553992185833
H 6.511075814595192 9.767191722700318 2.0684262269635685 -0.3662771208875061
O 15.93200518644202 1.1445007818361204 14.79809815729221 0.6748893356559833
H 15.754283472826296 1.7987805145027909 14.083843799753707 -0.31814784683968655
H 15.8858776891732 1.574298581051034 15.687221892589603 -0.3471938142184501
O 18.430661281775087 17.6700015969473 3.5942606511003006 0.6841629620282799
H 18.93645110496804 17.395218861788074 4.365649881565292 -0.35539283992155635
H 18.728190662445016 18.558157497181792 3.310779507249506 -0.3227284636098373
O 16.89138853653453 9.219007081333388 6.118362598321835 0.6961774299820203
H 17.807382253463654 8.923766337312204 6.179511172697527 -0.3213469825073859
H 16.82994432556819 9.848522467619395 5.356202762075203 -0.3425749775186412
O 16.409333632157388 11.076171464407208 4.313599738319042 0.6790629732846307
H 17.256271822583088 11.131768054949394 3.820027895647482 -0.3433453852904551
H 16.545515186450924 11.535055127234783 5.1772399673275915 -0.3612080061442797
O 1.130643624909938 7.380722594858953 15.959263415048614 0.6845639374738992
H 2.011952843143698 7.239119342118864 16.40245390194657 -0.35603364131360193
H 1.0096555136192737 8.322331908674126 15.772897344455382 -0.33782687618801954
O 6.129871607693268 13.657715710258586 7.257113011592174 0.745922569600145
H 5.622705988610135 12.823914137391995 7.327312413510045 -0.37221171395363173
H 5.880929869990592 14.063838634202574 6.41249958156244 -0.35616427209696155
O 12.925823403878892 12.281203608418092 14.230987551560231 0.7389528447480274
H 13.326571309052317 11.57541191606238 13.65431486463813 -0.35079345732429423
H 13.442414772286266 12.318990114956884 15.072643552218214 -0.3599779946796797
O 8.078266259601008 0.05231828257474993 5.018122069753463 0.7557966968410845
H 8.531816408820188 0.9755746391042447 4.925182974456607 -0.33659410171750215
H 7.1277888226629385 0.12927703765286844 5.094363336176435 -0.36487057021531644
O 15.233067872351024 9.986939212694404 1.9007040887255147 0.613699554155092
H 14.654503047179361 9.21915976513443 2.0191195352114657 -0.2980728774883734
H 15.710408885799314 10.186884767444814 2.7240768112590628 -0.3333331020029471
O 11.862387524347982 17.9193735572902 16.160079567557734 0.6923094284031759
H 12.105985719533626 18.498290563923135 15.39559055466023 -0.3052080802425339
H 11.949251079255195 16.974366322853946 15.82937914583179 -0.3615369604494453
O 3.176658891278328 2.506462149670589 18.011293003133893 0.6837356538701487
H 3.8638793648645695 3.2267061097558942 18.08559108174275 -0.3292913723446196
H 2.3079741790441175 2.912790023991518 18.296891846261705 -0.34659528810690243
O 14.665950967956316 14.16575934426247 9.531956336658327 0.7303195036234023
H 14.09971777117449 14.212188387136088 10.350124136228073 -0.3412724357321931
H 14.535615550442705 13.300513246747936 9.098271019293756 -0.3576402551413047
O 16.669138719603794 17.14577256301054 5.7164979364949104 0.7066574102477148
H 16.274455571242758 16.928407680625032 4.832424844384748 -0.34205527885685816
H 16.483064564919758 16.443464112917493 6.399362427345286 -0.33906994261884416
O 5.9790821913763885 7.289870826060497 2.7064695382507598 0.6641752080250019
H 6.220962206692707 7.9556358595196235 2.033676428102493 -0.3490776050566554
H 5.199408815884058 7.606049429717386 3.2429055519047716 -0.3360299392545002
O 12.799763189106063 3.4513511267655486 9.443803797656308 0.7115662178833881
H 11.949775439239675 2.9674582999482806 9.298383025232718 -0.3414241698484537
H 13.418245002715969 2.9140838289594746 9.980072377304184 -0.35119770896173885
O 15.768404584327188 16.6149370380435 3.0702157967737866 0.6937689725770451
H 16.649121742468303 17.07668359687354 3.085254830076438 -0.3457803516379482
H 15.552127184926496 16.39880979012158 2.1651880347833483 -0.3516527143850877
O 8.068655082727897 6.043557547806711 14.649320745964875 0.7456878419664887
H 7.57431257041448 5.985642728037164 15.537002341254984 -0.3533945200350086
H 7.538154753717648 5.540830111859884 14.004286081113843 -0.35360358822435767
O 13.938564853070535 4.682060421072135 16.743001134760284 0.6644438397379426
H 13.739170318578681 5.123064897353037 17.638954193679144 -0.350325654125207
H 14.707039263855172 4.057049157422651 16.84734750833654 -0.333953070522753
O 9.735967011143762 8.906472737776692 15.720981903599228 0.7475757109917334
H 10.200672980722306 8.03945835830528 15.448947939144704 -0.3692570831442473
H 9.195102549247737 9.26108520749057 14.985042648900079 -0.3441474697616229
O 9.907600602449978 4.101841796903948 12.411609523191366 0.6690311613115352
H 9.16579219399369 4.450383263413915 12.954441893101805 -0.3359265380658256
H 9.546399098531873 3.6120211222256624 11.615206779344666 -0.3377078732271317
O 10.409508276777228 7.006855063068432 4.289859500682275 0.6912953910068182
H 10.68964466101321 6.964200299698037 5.236348275555482 -0.33726077981046787
H 9.582206446683838 6.4889877301987635 4.162528567163795 -0.3630925535379387
O 0.7646041271894899 8.106833190044153 7.887971543748336 0.6343398432459582
H 1.710264560290505 7.9858810711509625 7.990644374989746 -0.32494008051378354
H 0.533554600302977 9.003102159055258 8.076706459233614 -0.30914449880353023
O 8.653122098031982 3.4848198096661327 1.944710225215404 0.6766232968605514
H 9.224380015397495 4.095955906269797 1.4655140884005557 -0.3445175438849485
H 8.826833016120695 2.5785114738635957 1.6763009705534733 -0.3384100301565336
O 17.19282580966481 5.849390754155968 18.30420462157669 0.6869149850194125
H 16.898964359740816 6.754297083612774 17.95471068938749 -0.3693441162604917
H 17.158175119611556 5.178567751018352 17.58829760805385 -0.33040185631513763
O 13.615358864555013 11.44629082125652 5.443337553820075 0.6863185164641354
H 14.412918005196822 11.152223961823603 4.990319788073441 -0.3288623147721984
H 13.157443461253777 12.117707501748168 4.8606525288755185 -0.354579130102172
O 5.497512636817086 1.9543320869050032 8.84726000575021 0.6937482673776056
H 5.454452531210797 1.9055090773912997 9.839900212339941 -0.3363420046560752
H 5.528152293549697 2.929817418555023 8.54673121383107 -0.32708365428341657
O 10.081285924742923 14.54866273583824 4.770624866041889 0.682525624062472
H 9.604492203901755 15.28300352956874 4.2595738112328005 -0.33753445434703855
H 10.085126453175286 14.775270799529439 5.731498247548771 -0.33038076881781386
O 3.518947019167067 18.00685210469218 8.531234225819942 0.6836003287963468
H 3.9834066948170284 17.13816765537398 8.578404348817616 -0.3478939479610028
H 4.1504270055060655 18.795686559063252 8.469520152797742 -0.3572752257469807
O 17.953581493557767 10.659528620121145 8.72683338148362 0.7044762790896089
H 17.322666886753627 10.471289061610133 7.963722721816608 -0.33155242909053007
H 17.448360094006027 10.802023048012282 9.561448437818264 -0.3480983494215183
O 12.269253477307782 15.501271655619377 15.058151758209123 0.6592276518078357
H 12.343284259810504 14.75718765355198 15.723296220005743 -0.3472926749590528
H 11.754143010325235 15.225919596117754 14.265778438468669 -0.3353146255012036
O 3.206131461583592 9.43153518684635 2.4108349147912014 0.6448236727847529
H 3.994720185036534 9.834712793054187 1.992108226619443 -0.3340260820189781
H 2.9110927006248044 8.603825763752074 1.9378742193367668 -0.31378166117546236
O 14.594361921485481 7.34469769492579 7.279065668337269 0.6559938264481442
H 14.523600728411552 6.705415508632236 8.025141478079894 -0.3482665232020501
H 15.378453487374543 7.943900880444959 7.416402391232787 -0.32586771841922146
O 4.61916939931806 12.655704250183822 17.270184392652414 0.7127204556212474
H 4.108659681813745 12.672857691329943 16.438056976319128 -0.383442938841144
H 4.005082374047735 12.467088729847006 18.022610232292365 -0.3303334506910699
O 11.103653206647008 17.75586659098551 2.375971378808025 0.7018552337906456
H 10.468097992876748 17.118669660647893 2.840999197183944 -0.35280073626855324
H 11.423145847945358 17.349090469359997 1.5172902310685867 -0.3340465449700204
O 2.0144191510391245 2.850825606111489 14.972500807217767 0.614166003339145
H 1.2283013200225574 3.403948973350899 14.869910115940126 -0.3136433653157159
H 1.8961520637054465 2.3418616265551635 15.836021924601317 -0.33215329381267655
O 16.314885978311786 13.77707529046178 0.814455710634738 0.7129895120837793
H 16.056260801822546 14.701896056675508 0.7341543851691452 -0.33607723823978575
H 15.562736539331565 13.122756392512423 0.6891025472705682 -0.3593926385776962
O 4.647033980847451 17.431377390307475 3.2240331014637986 0.6646968163909346
H 4.984634116401774 17.76318998868992 4.082672240405973 -0.3410871344296442
H 5.379488488926148 17.351188084067587 2.5977053611790177 -0.31055339749564914
O 14.007626174587193 1.0733368907530072 4.257429163033792 0.64573350732398
H 13.75366716557728 0.7347044566161817 3.365675767194162 -0.3454685138086321
H 14.971563795895989 1.236085785023073 4.276694126312622 -0.28733667913569916
O 2.4950794113111647 17.855422969796326 12.408790245880274 0.6583912039270317
H 3.052050118268371 17.21629248885062 12.88801428603184 -0.3353752355412484
H 2.315635018084264 17.5116969580329 11.52020800780981 -0.3269484989758884
O 9.405252851593728 16.976605221137795 9.033340804509125 0.6836869250933901
H 10.19406936314772 16.42218393174764 9.252636594841025 -0.33333616992167303
H 8.876471482715948 16.567914880378325 8.286425408120625 -0.366602529144751
O 3.823096087035896 7.001847127225088 4.801282621789093 0.686431122093559
H 4.287089140767984 6.114538628771209 4.780707202568946 -0.359786385485085
H 2.886702885314416 6.922507375503872 5.120752264133923 -0.3377277408202122
O 15.465829552435844 2.222664320960731 17.28898736705168 0.6911694609012375
H 15.417089032725404 2.5811837861484723 18.22454582906419 -0.3732574807073049
H 14.754208892219225 1.5506992453462212 17.167889599699834 -0.3256062248303001
O 6.145267538458264 1.222344896402532 1.1706441493173567 0.6480986593332965
H 7.116188760144484 1.000686639808788 1.2393554562461773 -0.3362563529662411
H 5.833414467051777 1.0558931591724146 0.23745216167333602 -0.3258079184794077
O 7.815408323515841 2.6440207823778135 17.48984186311775 0.6547950656707542
H 8.445876431329996 2.046937035678025 17.901172379940704 -0.3284631354583464
H 7.071930258353196 2.8669148319909183 18.13397720974962 -0.32747339413162113
O 8.884806457271 15.150394078084071 11.948966887400685 0.6948978313449432
H 8.649307636021822 14.904917131012288 11.034364423658298 -0.3386136052860371
H 9.509284337679638 14.46616500820936 12.340199667087619 -0.35005155172576763
O 13.510107910474714 5.913737396551653 14.326288016535916 0.7016856701017993
H 13.79089169780822 5.476684005875901 15.189325623992035 -0.3450761961018116
H 13.783431704217369 6.813719368586547 14.345179937298267 -0.36186555450165947
O 8.029292305559727 14.022238762734771 9.233158656732568 0.6949513397234384
H 8.932236324796996 14.14778295333857 8.869535895366768 -0.3428047373607449
H 7.348943885238245 14.039598605840084 8.550810100317044 -0.3546557938299604
O 9.22469431237507 5.033033927483871 8.990773974694044 0.7182650415494027
H 8.998036972620325 4.9475782454872075 8.035081765601634 -0.3767063268581855
H 9.709392283897406 4.246543412040892 9.28114067615369 -0.3353263944039657
O 5.396052556671357 0.6408281041060062 5.1156962495798615 0.7335059713259406
H 4.563479238533051 0.6564561262118563 5.6844911026554295 -0.34232812501049015
H 5.42236076744127 1.4618043493625223 4.554873955579592 -0.33975351961405775
O 14.330938593305282 11.888252249799452 0.40772415205502044 0.7120447046232075
H 14.637242721617442 11.119809427351706 0.939990542449824 -0.3771556121010988
H 13.48151560713138 12.093478390202142 0.6974347667910883 -0.3225872468511125
O 9.360486525300121 2.3528056296926105 4.795616751005646 0.6371427715900166
H 8.892094359648793 2.74209023469148 4.007463449909039 -0.33862461344611605
H 10.32890275999358 2.3593853516070213 4.6046216367645645 -0.3468115019241472
O 10.760378406145419 6.83266439833405 14.63798501227049 0.652327979730952
H 9.9733361571915 6.241677113541155 14.667318447951153 -0.35962751737019305
H 11.58369847425144 6.2828297525158545 14.396634715990851 -0.34252824672620086
O 12.271499018060794 15.708765567478777 7.9291705485702595 0.656722479815592
H 12.503461040629809 16.461445613008895 7.304235348893952 -0.3371474061601839
H 12.967308346596067 15.700566291709258 8.636456225390113 -0.32082143082572046
O 4.592139999755852 11.51229341283136 7.422328763078426 0.7235440584310311
H 3.924691172363528 11.231763687221525 8.057781954010231 -0.3591132247170955
H 4.304022235334178 11.252800011070745 6.514830888094886 -0.36818371532653316
O 12.720045709909902 17.974791719076915 5.909381197172363 0.6982497832539787
H 13.134917887227278 18.626520283908032 5.310282703190039 -0.35282234148203184
H 12.209922816830693 18.458138453442768 6.61798018954545 -0.33776226873458337
O 10.322188663476796 5.499633745633376 0.16460424013740718 0.652867218906434
H 9.909727565307847 6.3211797404120835 21.641926301769924 -0.32928300484942685
H 10.915832458651883 5.765039868469895 0.887608925463899 -0.321686786399241
O 5.6183194791405064 2.2213591316217816 11.474838700493349 0.6614342606338814
H 5.977308105156748 1.36198393326886 11.82569958268441 -0.33220689130759273
H 4.734466633799888 2.433792411016672 11.914796469996029 -0.34753784649385644
O 8.663075323839486 4.534797341738613 6.427301262085982 0.66602822933468
H 8.350200881430222 5.2556284451402675 5.816457471848303 -0.3320940822484
H 8.891994183217944 3.755253241677142 5.903791207053383 -0.34549278810137407
O 10.156853336976797 0.394389123575686 7.534037297937094 0.6488578788198707
H 9.463140707074897 0.4198042782827303 6.857387732322503 -0.35161702462842315
H 9.925649965998957 21.561705131312586 8.209335172170976 -0.30409380694939436
O 14.28739047984675 11.739109043967892 8.673816034178486 0.6619755127536147
H 13.724555715400019 10.913204600345406 8.640853487136226 -0.341391204481997
H 14.526303317805343 12.029640014781881 7.758570486289648 -0.35083655123461
O 14.663427100863903 5.895471118986114 9.917140522555433 0.6668980645072526
H 14.352044368239923 4.939821238034407 9.965059727080956 -0.32752380301687234
H 15.391876490777303 6.062667200407046 10.577066369937373 -0.3319011893153896
O 18.574948686313995 8.332195207327763 3.761594552399759 0.6749514076186607
H 18.99549372913207 7.697483070487257 4.3854083322661115 -0.35251189350980805
H 18.19334891699787 7.821893263829283 3.0152862742357813 -0.3279728528795378
O 4.886502046140466 13.845573052376416 1.7430311703286456 0.6894717598530704
H 4.023681741142137 13.748878443507584 2.1954104180171363 -0.3668579646249358
H 4.731155081629929 14.104744424002378 0.759996808066624 -0.3002552995637793
O 16.646213721758695 12.797371004618588 6.566470481792875 0.7187200756729153
H 17.595068930958952 12.868881255695719 6.714109617810354 -0.3425227033659136
H 16.19052185879134 13.607340977281766 6.867276743328693 -0.34661815844101873
O 13.900242559704736 5.743628006558473 0.7654498692196284 0.7312942209368423
H 13.396725005136622 5.5275991680144 1.5427890369526176 -0.36098717045239936
H 14.795461438504026 5.3424563160208 0.8730247986044859 -0.35854236375030624
O 5.271116483190193 2.5628667166787125 3.2818707890638104 0.7064035810582263
H 5.522456919112132 1.9916458130202943 2.537126397881938 -0.36502875327587236
H 5.249469171343612 3.5132823432056184 2.958781183142446 -0.348065189619957
O 17.541332335972665 12.232194013251506 15.87303535574627 0.6795966953115373
H 18.478244663205317 11.85407828834538 15.765983345647308 -0.3341732826343068
H 17.618181858697554 13.221050618445647 16.102998446292247 -0.3465969488042372
O 10.632230107231493 13.471389944106557 13.403665497521638 0.7399706498268976
H 9.869118350233284 13.201734654522516 13.980172776322883 -0.35420646919164045
H 11.482865211212227 13.190802230492972 13.875576252149147 -0.34941763217109767
O 15.923937948633258 16.284207551971935 16.245682122578216 0.7248697744779564
H 16.191404311907444 16.630548078679407 15.363682887503689 -0.36359241910701945
H 16.691345011036 15.88566490087413 16.726417469213835 -0.33081934521483125
O 16.373853536534824 10.99279494510667 10.779630934044947 0.6672670701119223
H 16.414253399708276 11.82138845020268 11.353354346906324 -0.3616045571439135
H 15.5009025903216 11.008864307010676 10.301632917035557 -0.3389457032498431
O 9.15691624541981 0.8842478295442355 14.022181166386561 0.6802196021195703
H 9.404282276792133 0.6681362233868302 13.11342386840542 -0.3361481021042435
H 9.86871586306184 1.4411928381259145 14.455697037471843 -0.32071405931514796
O 9.797182445664145 11.158955966467593 17.187987690407734 0.6831413584671617
H 8.791935192890978 11.197580057702593 17.260049329558186 -0.338600717719029
H 10.015311438734594 10.387338125381868 16.629087581680267 -0.3537476400006464
O 7.05727876313875 10.501300823528242 3.6878218885248595 0.7268866486949799
H 6.913059116950133 10.579100957049679 4.668834312747164 -0.34335042402182725
H 7.8706778720670485 10.002374358279091 3.521794641466158 -0.36949933405705193
O 4.089692816245618 8.125566064535281 12.510530908058465 0.7026532254609146
H 4.9431756232540005 8.26064671669376 13.044305167233777 -0.3368432370503742
H 3.7092681990392955 7.286583263860904 12.763885206608492 -0.3434889718983336
O 12.742529590998736 3.8594781790355785 12.622288743707996 0.71871207261204
H 12.967580127513846 4.605443851699456 13.29637582517768 -0.359348691599068
H 11.867254566782206 4.036521668364058 12.204985238595906 -0.3623004416971901
O 0.6366193427864255 15.636889321184002 13.31141934143228 0.6321392790927174
H 0.2066043040956199 16.457365441186916 12.951626108570963 -0.2926897761290854
H 1.6175149397009039 15.853820558523452 13.376869915720553 -0.3367154340554046
O 3.66850433276661 11.015767527900582 5.008567691719597 0.6524295296144933
H 3.6078614320767874 11.824715431704416 4.454877515986573 -0.3343116657002708
H 3.6948662069475495 10.205929795606218 4.402002534338674 -0.34738520643711157
O 5.6631137203365975 5.371826867861071 8.646869962581324 0.675941510771608
H 5.817444620562268 6.018817249976877 7.924052786395876 -0.3551221802369968
H 6.10176390353582 5.755700397894819 9.461038562210907 -0.32287994758991245
O 12.523839934785007 13.466139856065698 3.8849661725122635 0.6729113721170616
H 12.974313339612422 14.260428674810848 4.250825013906245 -0.3454289837833233
H 11.570611973235662 13.533303421773804 4.222466814078504 -0.34096175461076494
O 12.720760732467188 14.456489051443327 11.425657868050804 0.6640637897906627
H 13.19911001279254 14.556736967399095 12.28139810702373 -0.34348512391902974
H 12.094806857751895 13.719218867203884 11.481093669131045 -0.3385243340476364
O 15.826003231725501 6.39525666161711 4.713945008049371 0.6603991487839167
H 15.520110435228055 7.001409772282878 5.445154030452297 -0.3454025520858297
H 16.31990392584756 6.905333246122455 4.062408001595758 -0.31311747435189885
O 3.5355620486468773 15.103311891186507 13.297214078074155 0.707936407002137
H 3.309705823131503 14.672290943094666 12.443932775071815 -0.3554499565106547
H 4.465786639192485 15.35879802780052 13.320953668389935 -0.3522969264852095
O 4.0287957815779345 7.516350954078601 15.993474712888146 0.6572640284562716
H 4.70106798088858 8.031076180568464 15.522318860699233 -0.358498515574451
H 4.457892621263345 6.642915888574744 16.24306463771577 -0.3358329196295309
O 15.866426521629675 7.786959304741265 16.70524507244453 0.7305479709531344
H 14.977417516132014 8.165570680294708 16.640892279155125 -0.33422085665497125
H 16.455453223121342 8.27266665364552 16.03238423008775 -0.36193620151287564
O 10.13835952092054 1.0440901770373527 17.70007023683225 0.6483312431909276
H 10.198964150959842 1.8881603333513814 17.18910551837429 -0.3426641814785262
H 10.414683358636625 0.31015668819264 17.144803936444877 -0.31169885391108576
O 5.038922370880475 0.49506456575938074 17.400396820174965 0.6871032655640663
H 4.631580936502158 21.771966248807416 16.708552733098145 -0.33034821461606745
H 4.372434357970629 1.1665831624583496 17.738376520092185 -0.34548622376734506
O 5.731307826209273 8.69463871590694 10.290876888395289 0.6710014813737972
H 6.161397583255024 9.582550261422456 10.190936999017532 -0.3286170913782288
H 5.089273048616517 8.674109977604 11.063772828218255 -0.3460682426759685
O 13.608142913221593 8.612365464774 10.44608644993562 0.6835703366176578
H 12.835132923433608 8.661651001618235 9.787496813582674 -0.34116162622269797
H 13.970602393637678 7.751394970901392 10.551877128539848 -0.35554587739449206
O 12.09530675806384 5.256215029984242 2.74673807780219 0.712861214062622
H 12.221562373796818 4.431404398067018 3.268917985392386 -0.3556489669862041
H 11.815472844325441 5.95989646451402 3.336936029974408 -0.33950335736548753
O 3.0678179287803453 2.1244593495139448 12.310096032897741 0.6373999136123345
H 2.828986513188183 2.515437873333217 13.204362160795164 -0.34787578560916754
H 2.7669192489274512 1.1800204945465422 12.248335899068373 -0.3398563412061314
O 7.3180827567104165 6.338628643013874 10.640907994018434 0.6819994326907457
H 7.923103338152991 6.079001637960562 9.894956265754324 -0.3540606489899214
H 7.0558190564398195 7.266478297637621 10.527628333817221 -0.3470338626015744
O 17.285180344400928 9.360835080617946 18.543262294847903 0.6713909575995833
H 16.81519485924588 9.281657663130973 17.668734161947697 -0.3247884423573487
H 16.670900350602427 9.797752850517016 19.170607716904478 -0.3445483318772399
O 3.0701393958901315 0.6305765168819221 6.1764731021246195 0.6053497994989225
H 2.916471499899067 1.5167302674799086 6.476538031896994 -0.35307064728211757
H 2.996182068645936 0.06091915421663194 6.941879566737024 -0.28625146098437704
O 16.22090906493529 3.6588043953870892 3.7428454566615796 0.6744713810323848
H 16.258460203101897 2.915664122808664 4.373439738843976 -0.33961029125648967
H 15.742760849871265 4.432550800963292 4.112623934546156 -0.3444323924884216
O 10.239311226763256 7.653638467591489 9.658415599959012 0.6878641381273898
H 10.392776561903487 7.863934620874352 10.606920012527628 -0.35267682094180086
H 9.95270241461447 6.706973296471302 9.604855985058217 -0.34311000569783356
O 9.803528557212614 15.732704677381946 17.004488764526787 0.7236551708046228
H 9.596459479012246 16.16208426857656 16.136523536964123 -0.35773930447288227
H 10.156799876733766 14.853311759923825 16.805055821382894 -0.33539967889512057
O 18.585818244794808 15.177603997354957 16.05465445038438 0.6893798520409531
H 18.71210040495045 15.47030459359538 15.086976733823828 -0.32497611408908167
H 19.412410974521713 15.416728473845229 16.556872571757392 -0.34003517406459227
O 3.503572531956772 8.972681992820814 18.04532085708572 0.7120014294732249
H 4.258088656235824 9.415690098466944 18.520018390377405 -0.3272675765093208
H 3.8696148258710314 8.513882690401548 17.236447780257645 -0.3536756744204209
O 15.40158699830703 2.7413024823456764 1.2546274468724956 0.7015060888570517
H 14.799505366399911 1.962870397342755 1.4785718779639379 -0.3291224673409422
H 15.609171012886254 3.2517493279469605 2.062649580161447 -0.34867159732360975
O 13.03962473202011 8.380626646378808 0.424548631596546 0.6592264532276104
H 13.385945319882419 7.4500272188309795 0.5645981382948899 -0.3550672578367162
H 13.235377628544342 8.648709469517337 21.306157405740155 -0.3234184647496533
O 10.686793185027856 13.325507725735358 8.49852066013131 0.7016253464039384
H 10.755119232798606 12.511628507649343 7.928908435414718 -0.35598957522186525
H 11.292539567519574 14.022231483940875 8.14343091213015 -0.3281523265443993
O 3.1876185500330063 8.094842617114942 9.499071281891949 0.6995030988628992
H 4.0744703661493205 8.44501100418046 9.520706224209965 -0.3486591595809325
H 3.1227962473560087 7.240940105293498 9.989844130905599 -0.3428960699151109
O 3.384047372411978 5.090506707251192 10.058667866908813 0.7439539484466033
H 2.8995604781438193 4.276431829424826 9.841619239311425 -0.3470684982246225
H 4.158250840148664 5.134836256673322 9.421977317560517 -0.3560851918409679
O 11.38338552236932 3.8071804598200374 16.77833509241129 0.7031316112881285
H 10.961114797655506 4.409564669811194 17.39943450229625 -0.35565798818196337
H 12.282173307928048 4.12476360574187 16.649085924237472 -0.33716730401217
O 11.597827635230816 2.0614585945930064 14.771349657440322 0.7057987437617896
H 11.585990154034473 2.6838174433049518 15.54074395718481 -0.36081205797435034
H 11.862475609889492 2.552417318713243 13.981726838904972 -0.329399278541025
O 0.8880873485675208 18.011835490771347 9.268836110834306 0.6859402728793027
H 0.46017421447786067 17.19493781080201 9.049390759538593 -0.3198756161661559
H 1.7711005791030345 18.068988335784685 8.920736935859201 -0.3538527791584799
O 5.043830211152733 15.67845626558642 9.095640707466423 0.7044524750479688
H 5.676557895934278 16.40371873268417 9.196320211547024 -0.36790501504104023
H 5.453514196928544 14.857358756722881 8.697054546986609 -0.3541921281304594
O 10.022513860990571 7.952627702707694 12.382203294945564 0.6834853536605427
H 10.430723105670541 7.648966123315441 13.241042071824987 -0.3474328492591475
H 9.08157550728518 7.696324422777916 12.374257519095101 -0.31758784799794215
O 1.8891703917577274 5.196910051107334 17.21941424469592 0.6699450012623664
H 2.4549261558372764 4.826514120188602 16.5262804725184 -0.33198447363374695
H 1.3112520528660807 5.885579790929188 16.839723196327245 -0.34274558196441895
O 13.685685591773934 9.501521939193713 16.600260567844725 0.6831891024817516
H 14.089754765452914 10.40449293495132 16.781351514414013 -0.34302953364682587
H 13.805213561318457 9.287602937609398 15.67032965674962 -0.3445695078907941
O 8.145881575366225 5.7261496256139 3.251137013980259 0.7287425896657416
H 8.213207844159108 4.838231450029053 2.7880097419287946 -0.3546560573864461
H 7.231894820700548 6.054794210151983 3.186241531979365 -0.3512360479739908
O 16.569667743891237 6.043429634502215 12.065879690523706 0.6873095740437201
H 16.219890922698795 5.3888435286818686 12.692814241059333 -0.3340215195650419
H 17.367226273350116 5.6712190836847665 11.643948407273994 -0.35753430940906805
O 2.519986058589992 15.640229283854431 17.445645891138998 0.6914939877856376
H 2.2471523119621093 16.217699271059782 18.198970069178266 -0.32571166085559633
H 2.4423098385751394 14.687872816662942 17.69213975562248 -0.3466868426869092
O 6.70049423852424 4.631383400211934 12.694033671539348 0.7031060900112749
H 6.3814121564824005 3.764935866419447 12.375442539714376 -0.3420360140904274
H 6.993697741530969 5.140534403247343 11.899542911149695 -0.3469110095185237
O 9.3042269643697 16.78763656442591 14.640397243097809 0.6616946547402325
H 9.114559884973783 16.587747286234865 13.708632198108022 -0.3455033678828806
H 9.618673775776436 17.69893917535457 14.773348922821526 -0.33755730873457546
O 4.7232377398052 5.006504937392823 1.91201904152834 0.6522869768265558
H 5.338761174389877 5.780520275928588 1.9400150558101434 -0.33461326455287943
H 3.8050110319872656 5.307350439541455 1.9436320035778725 -0.30964712040753983
O 1.5964553450720738 11.360140467831924 14.662357206549839 0.5656453139962121
H 1.834918167448022 10.784619061296759 15.401433945561513 -0.31452267605973283
H 1.6926550048575721 10.878266336076697 13.798275739600264 -0.2891279030100433
O 13.469420247173034 10.591749436859958 12.348178050822696 0.6641107737939302
H 13.685266587411322 9.997520604587407 11.618099510209685 -0.35286269360197486
H 12.607331268704261 11.000338901392633 12.140519651705427 -0.3293313107425233
O 13.018962633719317 8.54768361130037 3.094310333105913 0.6796083469769263
H 12.155786594357076 8.22321471501887 3.4982476048907083 -0.32799472258894635
H 12.961136890606026 8.412020768291546 2.113800892193763 -0.3329992484775667
O 17.586768047247308 17.47964873672614 11.542851419154378 0.7111054444176617
H 18.20553598408154 17.76525755002019 10.82746670233529 -0.3471134239678374
H 17.197996726931315 16.592189670282796 11.260376160540318 -0.3580899857525539
O 12.5196245066072 17.309031022246554 11.279129328136039 0.6868454610057908
H 13.335672798974564 17.34720387895908 10.757038347142984 -0.33796044263679026
H 12.294655018764258 16.385795148838096 11.489338279221013 -0.33830312734877377
O 0.8306448587854723 12.576460910859277 10.223571384770885 0.6481404239091848
H 0.7666542032406407 12.589463320068335 11.186262391282005 -0.33206009757813526
H 21.805213737244415 12.16407890920426 9.850373669780268 -0.3243874982028273
O 6.876457816355988 16.620581734051207 17.16278909086271 0.6619953470116107
H 6.33673990398218 17.420234485532394 17.25613972267342 -0.33091527637397333
H 7.369036192811603 16.671743073000332 16.316894043587602 -0.3464748146528114
O 9.037253314874773 0.861145991855662 1.329258987426059 0.6186160568018986
H 9.523629348045105 0.8798614030957552 0.45605781226579734 -0.31051436015476364
H 9.580037627615281 0.4390290823102109 2.011754045457251 -0.33367620503650763
O 17.26519080795625 1.341251455592891 5.2260573195062525 0.6808991463651664
H 17.9864204780536 1.203802714193895 4.559529060793565 -0.3633930731608521
H 16.947185931812033 0.4911454970404501 5.612054543358963 -0.3239357515872552
O 13.884178928113295 15.736532379011553 4.763534124468536 0.7086829033423436
H 14.529974565201924 15.85026698313914 4.044710544522425 -0.3561681999413139
H 13.462610840666507 16.577244201226495 4.988955924732105 -0.3554733033774232
O 12.797455017222756 9.261258530617434 6.713213537158709 0.7288109060521615
H 13.352575272378074 8.48919179130763 6.7670272234109365 -0.34282151772364333
H 13.200273671171553 9.933913423828763 6.122292154063885 -0.36091961889303104
O 8.299126613457876 12.727228639154756 14.221612694501527 0.6600643815479437
H 8.256424364390114 13.073675709068718 15.123194964111612 -0.35480984233393575
H 7.447882592073205 12.921133097037877 13.757313933368449 -0.3483451805135648
O 6.719609666001908 16.15696121716672 1.541883199262529 0.6804970508398949
H 6.819703234296402 16.24428912728957 0.5416569001025692 -0.320845331873748
H 6.2896144079292515 15.247864457706635 1.7454537845131302 -0.35978903805474793
O 16.50155707545679 17.2098633410112 13.93909391949394 0.710303722010079
H 17.02591360448279 17.304410631424357 13.106085888685879 -0.35638325068626175
H 16.227809146523036 18.087018664041597 14.274268703288564 -0.35147996360210854
O 18.40987352215846 1.7471248081366868 9.635027850978611 0.6680257775468856
H 18.77475368220908 0.9249127738963849 9.277484660236157 -0.3404669058370118
H 17.431260990867038 1.7526354319664812 9.46238253577288 -0.35746384665622255
O 2.623194859518507 3.2637481152930583 7.194202731418903 0.6815453816728851
H 1.8651021894236666 3.8012964202043205 6.861477539298931 -0.3438446081385641
H 2.555425206404209 3.1245588611908217 8.18457038284893 -0.33640440578237296
O 11.943653910083446 16.126046207775687 0.32626398494612674 0.6835906832998653
H 12.018302262767241 15.21034923165231 0.6957737287465983 -0.3674139059450523
H 11.34199045682234 16.09114791136025 21.3592147867352 -0.32575400987713554
O 8.214421971463196 10.028259831137483 13.732816158382931 0.6722880983752804
H 8.61308648556416 10.008976524068999 12.806151657616175 -0.34552208824008923
H 8.307875878222495 10.907172131313075 14.097720372148826 -0.35560496279778664
O 9.156458440798957 9.102594631645903 2.9059025907643368 0.7071051921185232
H 9.782985897061907 9.497905902131377 2.262249813014553 -0.3542698256764153
H 9.561424147979118 8.272277932826707 3.346763623794 -0.3409391089831266
O 15.03947282240378 16.071427810486004 0.4327480411617415 0.6435026638345036
H 14.12093612432497 16.42032890056884 0.515321365481642 -0.32662123579479263
H 15.42680582028561 16.285770246250298 21.398093034799366 -0.3422803232855388
O 3.7231593486121124 12.881037588520632 14.901235989517797 0.720440047758296
H 3.61163279695837 13.78803973726 14.570587486143708 -0.3504100816526695
H 2.8782688013335287 12.35607114772731 14.77430140915687 -0.3564206416640714
O 16.139506676550763 12.924036009996298 12.888158251499968 0.6844633555316788
H 16.744601307840785 12.948617556816545 13.664112738285898 -0.33608337887220807
H 15.411736358023399 13.549335351853836 13.026656400419721 -0.34470374542095505
O 10.392014398556695 10.9843249552287 6.958760721230767 0.6844330095692319
H 9.684341391827836 10.488860087528773 7.5234277574100235 -0.3374614567878049
H 10.95145146671615 10.320395388074767 6.51217012317364 -0.3346142433056941
O 10.13087875180714 2.357159670858649 9.71075624003371 0.6893826411277111
H 10.028491730712336 1.9855007794020734 8.789975317762611 -0.3458016454551901
H 10.10718179243199 1.6204329515248472 10.361459830892917 -0.33175223684313804
O 5.909022874006887 14.867694298660906 4.904509835882416 0.663501616631959
H 6.338170300172511 14.29304877141007 4.206499246238223 -0.3406695622942848
H 5.474238601474222 15.644057414062749 4.483158132524194 -0.33365948676253965
O 17.089909671610197 3.84801753468934 13.807555015887157 0.7064055368919746
H 17.816564287925985 4.541988016611562 13.825977883552454 -0.33948185519967455
H 17.34025370116628 3.1153035527027333 13.229765350981344 -0.3604743405963603
O 2.555049781667455 13.48640424380192 2.8920757038076568 0.7049690112115785
H 1.582070775192371 13.49133161347545 2.6249280901878382 -0.35108125982936
H 2.6398982395148045 14.012092153910645 3.7232959123789455 -0.3584687447858975
O 1.0537831689766364 10.13221358351741 17.260752646774943 0.6640078635961757
H 0.2994201671123851 9.793018932018827 17.774219401397147 -0.3033228518717819
H 1.8845902232860765 9.811231784498794 17.65851849171348 -0.35018556261485867
O 6.7143391860512756 2.0259865013014466 14.896247223044659 0.6701013609611213
H 7.61866337812893 1.8799564096629455 14.459480381885419 -0.32996192899449983
H 6.81279087435562 2.071498129769059 15.840729299163375 -0.3286796373773613
O 14.403100092587037 8.558869745984477 13.979348551300113 0.6997704719217044
H 13.843162050234135 9.077816015807516 13.38203271617882 -0.3467848894217678
H 15.3367211134981 8.656083386912744 13.719042775962729 -0.3469610888139173
O 11.825916081763532 13.353474319588278 1.1931231075001683 0.7336380685646198
H 10.83751321308084 13.21984383456607 1.2170330204348305 -0.3759224819123317
H 12.151629610690936 13.541062227763298 2.1199957113357706 -0.3404819774897164
O 6.124304693490532 8.419162573029194 14.313672974928089 0.6856603087026407
H 6.715337110965462 9.213557424256885 14.158179937518087 -0.3597461836982334
H 6.709100747671044 7.637377407481164 14.327360001431321 -0.33645420603774057
O 14.933373052183786 17.66966792807722 9.59875517413223 0.6399041919807011
H 15.275989380547417 18.32863397795131 8.935602247187566 -0.3283882032650485
H 15.55739151994966 17.594937951300544 10.327029208220942 -0.3168043527182106
O 7.1647500705386316 5.648810958293779 17.089607553059373 0.6506977363953981
H 7.37568510285547 6.2872985485507975 17.81994505074279 -0.34936672915591394
H 7.70845300219644 4.83659420083163 17.16728602141995 -0.334513331283547
O 14.500815689557566 12.193982508376678 16.335745369844158 0.6852091582231044
H 14.462643118049533 12.117230212322918 17.302828275792177 -0.3652597079224701
H 15.455042571125498 12.132498339736236 16.04466914960205 -0.33788262691619464
O 3.9066277425387486 17.40604829423748 15.60216962010144 0.6575367638867187
H 2.9974644287377386 17.802658044664728 15.591917275806011 -0.3502371801149613
H 3.8437360834840417 16.503167211096475 15.91760972445239 -0.36472668534731845
O 16.747717891635066 8.821009108705749 12.539637926677281 0.6926396943189088
H 16.48181058582741 7.96318024583211 12.162585124485508 -0.352139595367047
H 16.72794834505809 9.493932490745863 11.836458001290051 -0.3569010134762247
O 12.249958641481463 3.250351352191413 4.488870064610328 0.6961631050957928
H 12.884279478685512 2.549349469432265 4.43251729050612 -0.35511076349978965
H 12.434652598678566 3.7736326176181145 5.314385244679702 -0.3465087519392459
O 5.948360424715225 7.443845159086808 6.520232882200756 0.6993870404091318
H 6.415943534158392 8.284133522655953 6.365317342936062 -0.3392831382587622
H 5.057349127748831 7.4837834092472795 6.045552196424519 -0.3335583982978749
O 17.76705310347987 3.4265814432755577 16.414098454056937 0.7086499809404856
H 17.602365435348236 3.7228121868157125 15.497831306790934 -0.3377924858821686
H 16.941416703959263 3.0506831168742004 16.776783065677712 -0.3362626488415623
O 17.301252103314273 9.33350792960143 15.174153598120137 0.6888918470490744
H 17.691562215469467 10.240264015473105 15.303399113200566 -0.3446234187302576
H 17.206325389772903 9.206471955269175 14.176981871055885 -0.353930325817725
O 8.585561054802133 13.741919852524681 0.16052586035536487 0.6561276051484022
H 8.119299596106464 13.888111191428287 1.0411374573781733 -0.3351064702389793
H 9.008646095583622 14.590374909294178 21.724352431381934 -0.3103559547508794
O 6.611438934392472 17.903052901452657 9.533775530573523 0.6685526586234927
H 6.1244570648037335 18.775977697224153 9.403164765087375 -0.33800270550887
H 7.606027317680021 18.020620290445496 9.44101336467631 -0.33516364654266817
O 8.586629068823862 9.557040051503616 8.605945556190205 0.7044998569016956
H 9.130129736006124 8.879041116066219 9.080386036103034 -0.35237635128995737
H 8.286510911725172 10.230511851994041 9.239580028929677 -0.35756745143501434
O 10.836030194560598 9.839759327780616 0.8659254172738531 0.6738565562450054
H 10.573701604135687 10.337921266769598 0.06797239685867881 -0.33140225314530136
H 11.644376537451333 9.288495303176395 0.6630006007574709 -0.3299639862571824
O 18.615972900815166 15.694533295854901 8.503447046270404 0.6467467058289635
H 17.911769957884715 15.579318610560996 7.7821878755005 -0.33535080765716163
H 18.640600033767587 14.918303896838795 9.086542708229453 -0.3460267389855374
O 2.2107998421001707 13.137085756607378 18.436449635023905 0.6423293131135068
H 1.567248108105658 12.420684536159344 18.22611270053548 -0.33912770553123794
H 2.24910522718453 13.262173944447788 19.403589697623232 -0.3277368507437972
O 0.7844184560371602 12.398533211687612 6.5288814999151725 0.6360302153739452
H 0.8167636398322489 11.953796716816587 7.404034212784255 -0.3260189138789906
H 1.60339147735956 12.109441220544127 6.018351326617615 -0.32433139948286605
O 6.722906035138972 13.92040258501515 16.23997502116774 0.7148218345021666
H 5.966407974483493 13.390894311195314 16.60153236003682 -0.35031013264611677
H 6.6776130834852765 14.835712587945135 16.59796706942518 -0.33023574544162515
O 18.24509853203469 1.9228651273349342 12.278181924461649 0.7054817954061772
H 18.19017795468793 1.0227298310195183 12.726156680987142 -0.32050405996683295
H 18.254950120486846 1.806128770702184 11.28273713838642 -0.36435953173471847
O 4.280665919773761 4.231202253745981 5.1997164681900045 0.7110084170055337
H 4.559558638643364 3.5196726229423394 4.567076322152121 -0.34728143241957676
H 3.8911748670682704 3.817307447741378 6.015926806843887 -0.3410098231470847
O 17.04539788150372 14.873450263982788 11.032013070710786 0.6712955116134083
H 16.13026569549829 14.601804372431964 10.799277445371656 -0.3446675980093251
H 17.324615467612674 14.382445849653005 11.862349528685224 -0.34295134261166427
O 3.176923752921207 5.47087544846186 12.804469339008696 0.700991260726977
H 3.5678057109172 4.883439243857363 13.504325559990551 -0.33068752823798053
H 3.5699372481308163 5.220064021194085 11.947815661315872 -0.35634204979158124
O 8.112062098219182 15.856968219391085 6.875481239389308 0.6582432507457296
H 8.426970117776348 15.985423002792606 5.935163894533075 -0.32177483408467467
H 7.33554337848864 15.23223511969532 6.880602731609108 -0.35060714710989205
O 14.238843408443444 2.1406638834364533 11.113841147949588 0.6648380362129256
H 14.736549346066935 1.5176072315949625 11.68946547246673 -0.3154960292667638
H 13.747194498197599 2.7640637268452735 11.740286219941481 -0.3547708281427323
O 10.019076676065534 0.3292313846656113 11.539956240937732 0.6310779932959658
H 9.40326132715454 21.410425632699017 11.229571318785135 -0.3567535415950789
H 10.911986404270582 0.003400807131221484 11.52628107886927 -0.32347438988551225
O 7.696999540289302 13.300288723191944 3.002649290133483 0.6749988658696049
H 7.238596643369044 12.454758986095769 3.1750813462382426 -0.35397248328506736
H 8.590732926453521 13.254092370429413 3.4090702190749145 -0.3260724376152916
O 6.182118411857375 15.669013515969253 12.838660980874096 0.7166108181229349
H 6.134185319102372 16.482737856314355 13.413881852729473 -0.3546904638254208
H 7.076598994123985 15.637950216363784 12.384168087168232 -0.3400773952851178
O 13.519744414382291 0.5241736259627265 1.6917063676291264 0.6616052267906731
H 13.871800640030544 0.10465611404185252 0.8442256632240508 -0.34845705001651517
H 12.653097106244857 0.16371078826648083 1.871947092107482 -0.32360788857912837
O 13.000571291157893 4.534531316743904 6.907851981254357 0.6873336708074893
H 12.412621352380459 5.342117762650887 6.964947921937223 -0.3422980983638547
H 13.151746793993118 4.196115093075922 7.798134112423817 -0.3377780633027522
O 15.929208918343397 2.2108758867051805 8.826274309600157 0.6611784266563134
H 15.09158296698724 2.2063940063590364 9.353551132202416 -0.34721227758516104
H 15.938892786716039 3.0386903003546957 8.24310362627596 -0.3352714691036044
O 0.38877803881277556 10.763440996966402 2.9968611854095526 0.6193242715620837
H 1.3763529425583785 10.647676446106589 2.9177682554366364 -0.32565636246540275
H 21.806316779617312 9.914629750154166 3.3211743307719503 -0.29436667397796823
O 8.746279578108584 16.46115007246063 3.367594620540632 0.7121925160976286
H 7.984431529392511 16.108240956416395 2.828492961243592 -0.3547231814809829
H 8.388919655788092 17.16997291296059 4.001197281665703 -0.363338788665439
O 17.55371940782795 6.0711342490007105 20.93698368715385 0.7032454145067266
H 17.440858910598873 5.947741912639671 19.957321360311905 -0.3733248877486275
H 17.26304739387671 5.290026313111217 21.425056993071852 -0.31357020284544523
O 6.057561658811954 9.633841976516198 19.85689943979743 0.6936832223160394
H 6.166399986321025 10.467916110761946 19.29762222692922 -0.3510780556506228
H 6.528226413933399 9.770808349093716 20.71255503164726 -0.33639487360528264
O 18.414901913756832 17.67413503219395 0.3767536181261199 0.652945441647037
H 18.94863858146876 17.397274379956322 1.206310089101293 -0.34819876548493345
H 18.741374045802853 18.555795480866973 0.0870968155162487 -0.30299982714270657
O 0.2719806617772752 15.96801148710122 19.7860097079884 0.6406511105024446
H 0.09672287108131998 15.003155523019108 20.015046036026522 -0.31818222837684984
H 21.759617057852257 16.54574109867971 20.535710613748222 -0.3181240678029551
O 16.41141714292793 11.092205170071496 1.0979656635053352 0.6227790277907816
H 17.252148721536095 11.121231950600553 0.5739644238335779 -0.31606490144205523
H 16.537062238165603 11.553863812806101 2.0099407111386265 -0.3157268725412272
O 15.251970414375103 9.98617439886048 20.527146684815 0.6633804391403686
H 14.635381486104682 9.226759369987588 20.601049454366102 -0.3170087127798005
H 15.766231037692899 10.19141276561195 21.380314112353243 -0.3825912382116827
O 5.973961320680154 7.297465278724722 21.329810864288696 0.6483027172438787
H 6.241338546664514 7.962883080947468 20.666402530738075 -0.3482805596087344
H 5.210913158036216 7.646508565569764 0.04001841840663966 -0.3196151487246358
O 8.65194051506928 3.469307696436582 20.565278567979753 0.6105544985262874
H 9.25656382763187 4.09140714846292 20.084403647146722 -0.3276459870164864
H 8.852252217404182 2.547508248897094 20.298494083259836 -0.29237261516249646
O 10.086140922627079 14.563571640933468 1.56852286244468 0.6623576184182909
H 9.611105207917259 15.261681651285475 1.064230598189289 -0.335576142975058
H 10.034478896987071 14.76361531338058 2.5591735067903 -0.31355361704060203
O 3.2179741275244855 9.431006658406874 21.038622583226037 0.6371780292564448
H 4.012023219339787 9.841093168616544 20.64913375032861 -0.3285413256768135
H 2.9715560687011786 8.605744267393781 20.502890489476215 -0.30656746633902376
O 16.325578515116064 13.774244207555148 19.430886663761278 0.7000713499510685
H 16.00576889348692 14.673382698235645 19.334355924388092 -0.3428281109750575
H 15.566094176297613 13.15106714788494 19.31316581888714 -0.34230852859590133
O 4.633506352291265 17.43723563490417 0.01902823032664925 0.6495909370087851
H 4.94951429765905 17.81213512612821 0.8936800448489718 -0.3480159032967709
H 5.423635958169679 17.337840497161093 21.207079619571484 -0.31626954511020167
O 6.146178911329655 1.2283124618501868 19.792657964391214 0.6743744817098838
H 7.076045530388217 1.000681473884577 19.869193383086326 -0.31891992934072455
H 5.84269545652818 1.0678983685586159 18.89178283716507 -0.3327006445945161
O 14.339923933470917 11.882577908146828 19.033855297462154 0.7155814508750868
H 14.659627048460328 11.127617743941428 19.579986145793473 -0.37786250032236113
H 13.447201972332648 12.169848476523194 19.34111213941559 -0.3394632536154474
O 2.9672976194225984 0.3463555485941129 20.325458908946178 0.6235950180072036
H 3.4456489792116396 1.1676461640650182 20.11814000084979 -0.3224068136699185
H 3.547385112812588 21.545410217573675 20.769131982368826 -0.33458498666411995
O 10.325975921399497 5.488972092872799 18.774058940538694 0.6605272773762882
H 9.951219819522958 6.28563727627968 18.399735297271423 -0.34906975933791673
H 10.961269428216502 5.709230478280659 19.455703941336857 -0.3286375213240148
O 18.564543636733525 8.32386405188487 0.5665509978202717 0.6401352432680705
H 18.978246426611 7.707915962573242 1.210465178018343 -0.3256761759143165
H 18.167501431025993 7.7953071398729135 21.640892753494644 -0.33241832992810283
O 4.873520186329832 13.85498925069141 20.3486631294719 0.6972419713197224
H 3.9967664896283392 13.719728230362202 20.784623990448587 -0.35700065058882013
H 4.704183143144099 14.097026339345486 19.431963825294286 -0.31608044896395904
O 13.902453969683354 5.74739771104823 19.413524615270592 0.6530022306312944
H 13.362753289956899 5.554046550190774 20.20817648087168 -0.3493267433759526
H 14.78349834930165 5.3430564306650465 19.500401902255774 -0.33309975253706425
O 15.815191062387582 6.398096700477229 1.50907435812309 0.6346419755977584
H 15.490549383340692 7.007171026254079 2.2459431933886864 -0.3359223732236051
H 16.32616911874838 6.879910928791875 0.8516683800873134 -0.3148989302995413
O 15.394721958767999 2.74222991931048 19.86734989011985 0.675061457773805
H 14.798990273087748 1.983963894872824 20.126516676913162 -0.3513306356640238
H 15.613573276966749 3.2288719327653843 20.68891931401967 -0.3468242760677167
O 13.036306868980075 8.387972114416849 19.04380857841264 0.6944172649680098
H 13.367156080463463 7.504397984872255 19.20325200584208 -0.33474093293084195
H 13.207375974722911 8.628664318936503 18.106296100568347 -0.35837270952086975
O 8.145287495656415 5.720113965561457 0.036002761040755456 0.6943019720470254
H 8.228336863211759 4.857002525113052 21.44263606219036 -0.34125403934239407
H 7.214393218625851 6.0212004298811665 21.79802875197913 -0.32817934058240184
O 4.721662799837675 4.999215267524468 20.522984100178807 0.6433055562195324
H 5.304013995054534 5.77610159657443 20.565461611339426 -0.3311728976053401
H 3.7800479620332132 5.296306472733123 20.537212046754465 -0.29215303970823703
O 17.261495096354963 1.3579707029316055 2.0207513546788407 0.6171870144405052
H 17.956433728204804 1.1491246188610975 1.3419008328430215 -0.3120547584195362
H 16.94974961363802 0.4520354890320214 2.4359480025314455 -0.2934200447785168
O 6.722018019302916 16.15427507034712 20.165034394204373 0.6891840914617049
H 6.818411280247587 16.24442318631189 19.17950177324144 -0.3604775497653989
H 6.330194217569684 15.275601777505825 20.360078098656356 -0.34573304224708723
O 11.944033567305269 16.11534723374312 18.935153061993297 0.6995449945503758
H 11.98863909320697 15.213095849647065 19.3082587788401 -0.32674956880347794
H 11.346641454740949 16.161072538585895 18.16906410962445 -0.3535512648277136
O 9.157083667375712 9.10623797929581 21.533493253741188 0.652099226652175
H 9.768940239976754 9.436864010987792 20.84753637474513 -0.3268828262988597
H 9.5533130758961 8.281008683479524 0.09021860944234548 -0.31037793286586746
O 15.042422647758006 16.079188002086838 19.05498370799616 0.6647522816121665
H 14.124623076614977 16.455430202824576 19.130687454153634 -0.3247045363306277
H 15.396756597607896 16.272832136312346 18.16900447946355 -0.34688399665312386
O 2.5587644684672033 13.472977025010955 21.522754040495187 0.6522534022413886
H 1.5861778425824578 13.498609092041635 21.269780924946144 -0.34873667895858296
H 2.6514532502626325 14.005807061222816 0.5440263270336246 -0.3377465253123414
O 0.7575403610532873 3.4411812905115053 18.947983914853353 0.6378039913813174
H 21.643079113201036 3.1448157441366216 18.674030541037514 -0.30296424744653205
H 1.0639565120674064 4.194784721655162 18.404051404458333 -0.33908996646511
O 11.830140481745463 13.35764357896321 19.81332435149541 0.6636529707810652
H 10.894562029333024 13.239181110209458 19.84682754179679 -0.3398538636344923
H 12.172427652989125 13.488794711033973 20.72413615353095 -0.3466173810099066
O 8.590907968906306 13.734563522025121 18.77676817251924 0.6481426306684961
H 8.101160602129651 13.88294825229773 19.648399133545862 -0.3137504238037915
H 9.030973853189499 14.557985870050281 18.508351796188535 -0.3394271027171756
O 10.827076312274935 9.840200621653103 19.48713815451163 0.7103908329897459
H 10.61365640789823 10.371996901466446 18.706737432343683 -0.3424141083632698
H 11.627439810320963 9.284131813562832 19.311534482279004 -0.34705178428902106
O 13.512088770591221 0.5252638628288927 20.3060700381422 0.6665392145413378
H 13.890512093223895 0.11740323125972031 19.51717672903631 -0.34002146257094423
H 12.648929563183163 0.1462535191279427 20.512309253890418 -0.31939125511878497
O 0.3884344440077809 10.766527780589415 21.62521205357367 0.6218621260230979
H 1.3553452394075602 10.665330388056143 21.543873833108297 -0.32235594558994585
H 0.0041725717055886135 9.934290999206326 0.10770542797529437 -0.2996327330426576
O 8.749318531485047 16.460652524664855 0.16245273748089922 0.6740689945790264
H 7.991119907256831 16.14755985272006 21.442311325823834 -0.3454168886109886
H 8.435143907173261 17.164477751037047 0.788994713176108 -0.34455611162058364
O 4.37305389826644 0.7065386882830081 14.991866891271732 0.6916516969741382
H 5.1959540875616055 0.1881832913294718 15.081617986183774 -0.3466140791103699
H 3.588861031290005 0.12943003948325324 15.039110012182382 -0.3205801940994557
O 15.943728460885085 19.76377704776357 14.803434230510977 0.6646185514771785
H 15.740991527211433 20.411017658215787 14.09190185719611 -0.31723149587894006
H 15.883452087860318 20.21618040068205 15.667366902608935 -0.35155956546890144
O 8.097901807600385 18.651414760916165 5.021814830011913 0.7085311217911618
H 8.499870309786466 19.57367181013566 4.972960139269704 -0.34599052576670064
H 7.090235767453508 18.72981345011735 5.046661240739887 -0.36347659443271396
O 12.806490215733369 0.24235737721007583 9.443525337956538 0.6853531427938115
H 11.96231357215319 21.600721180185023 9.281090256714528 -0.3233647117667259
H 13.420539344311257 21.54496763542288 9.981369654138872 -0.3532768472789223
O 5.498474004403528 20.581956518316773 8.851331042237316 0.7050879537743802
H 5.459559530759551 20.539910458639103 9.810863093291832 -0.3379228647447128
H 5.481478896987266 21.50952622457707 8.566942214299972 -0.35136228848515283
O 2.0211604815340345 21.478568705261733 14.986021582331528 0.6286577031293579
H 1.2778910090165738 0.22447456984291686 14.8547627650969 -0.32715060680979613
H 1.9016003391092067 21.011984925049862 15.832254035026654 -0.33513723919323823
O 13.997932290100763 19.695291579706183 4.255127635856256 0.6589341948628817
H 13.732381904727022 19.332128848106322 3.4106796648380433 -0.3517661193118373
H 14.974094071653125 19.831179798676196 4.295685298567458 -0.3314340704487433
O 15.469999542722285 20.838527057721638 17.29442105561554 0.6797439751923156
H 15.417476029079035 21.219766236866974 18.1934148193455 -0.36163318433753766
H 14.738242847734735 20.16331798933369 17.15749533414419 -0.3239823888656399
O 6.139256901644778 19.827414900711158 1.165384954704409 0.6370809381228071
H 7.095088330454142 19.618979030732387 1.2091321948505496 -0.33042506653107007
H 5.837557946660535 19.66863544837783 0.2647994776065759 -0.31709910299137245
O 7.806960808696824 21.266607328414956 17.499561116558947 0.6480695537124257
H 8.501591297605424 20.660768836110933 17.94850903641882 -0.3135279461648741
H 7.104930857246637 21.469285780613838 18.12274033483023 -0.3282757884332801
O 5.394090435669424 19.268888223787435 5.117651342621801 0.7668070882030182
H 4.572344526763229 19.25179757361772 5.696755692028819 -0.3519800271384157
H 5.443963693303139 20.094615086663165 4.595098082622998 -0.38823830698230144
O 5.619315214860273 20.83911280814998 11.474391433307217 0.6722864474278509
H 5.98301813969626 20.029511952287145 11.832212823072151 -0.32250658022920253
H 4.731938921503626 21.017753190522193 11.888847206810487 -0.35235577071270574
O 10.160583048235273 19.011411364854666 7.535249872691177 0.700956028090653
H 9.425003291721103 19.05462234930747 6.840972691049718 -0.3243615650367352
H 9.930099038874248 18.326517669977417 8.220432576238938 -0.33964877712356023
O 5.266533958445243 21.18420577133436 3.2778090318321267 0.6695159784614564
H 5.529337423517407 20.577484662969624 2.5563066354010844 -0.33274110975118987
H 5.264377465176085 0.2821661978821039 2.978437812605969 -0.33457994668928437
O 9.144484578195742 19.515188640276605 14.02809018050777 0.6887116189568205
H 9.42838572132784 19.327509834590984 13.097063317832085 -0.3402091350977523
H 9.856084786345154 20.10680790673236 14.422205362535633 -0.3210314158751144
O 12.735786337560736 0.6512039604467786 12.622391152033266 0.6631444462722103
H 12.972504334901892 1.3596575174983367 13.23957151175714 -0.34230406334475527
H 11.860831160116332 0.8318416004886519 12.235711924642379 -0.3398593063453187
O 10.127123464499455 19.667291459065964 17.69761826019703 0.6602965390524282
H 10.19089897598222 20.510829060117047 17.196176713412765 -0.2990300347517061
H 10.441843959981043 18.929206163633715 17.155860877595643 -0.3651771722769709
O 5.03825709899323 19.126377721383836 17.399039079049317 0.687574177705109
H 4.609041031430547 18.545691306851907 16.724624406022677 -0.35919891827173756
H 4.37846133512458 19.80290312248337 17.732950665066838 -0.3270291206710211
O 3.0632108553717896 20.750348359555403 12.313957251347103 0.6727583795962238
H 2.8252837794967074 21.11815360014325 13.192849817604953 -0.33195393774626625
H 2.7813545598133818 19.848147819478974 12.245921793489023 -0.3550034636607796
O 3.0725608361608416 19.246519040021457 6.174762881332725 0.6376404796148627
H 2.981746267218274 20.1665176994922 6.503302308445779 -0.34303161618236777
H 3.010034630609323 18.610507675898393 6.920630412906207 -0.34034250530532917
O 15.392708090963563 21.363981037952524 1.2507182205654206 0.6555050233977813
H 14.841229183041662 20.615337898135017 1.472730134728154 -0.3324736592027808
H 15.617013470458662 0.0438970685976395 2.085336059458206 -0.33469215410816633
O 11.602584441798264 20.69154927137687 14.76608708888473 0.6322211345285886
H 11.590722725731995 21.342820145654173 15.536954818476785 -0.30853443112334034
H 11.89405686885537 21.148414300512343 13.95607588631615 -0.33289832137606534
O 9.030586759572838 19.48239286968575 1.331906157983131 0.6373856298004812
H 9.555726884709712 19.496249061767244 0.5019901104339957 -0.294392502323539
H 9.61778729317924 19.099836930057855 2.043123716177107 -0.3450777149987132
O 17.263801725276977 19.96253154181081 5.228923684640109 0.6953658220048116
H 17.974077779512147 19.814775006157387 4.597997909006509 -0.3376123429425777
H 16.983854219798392 19.113620341162658 5.592145343376624 -0.34951781465264264
O 18.41028047805202 20.3717385243493 9.63201884933317 0.7283467953521283
H 18.8293413160081 19.52071044433383 9.297940916653255 -0.3654197796790055
H 17.441626446135846 20.397016949720047 9.43460315807521 -0.3590610371905475
O 6.727216733482546 20.64598967043473 14.891434073598317 0.6816548379496972
H 7.593098580975436 20.504063641187308 14.480135170994393 -0.35020306559594383
H 6.800291729965873 20.701503015701633 15.895168412270722 -0.3338418625415256
O 12.248345887365925 0.04216082656128261 4.495048250871973 0.6986958222692063
H 12.890035879859164 21.128957612608733 4.394909115108788 -0.3193531127428362
H 12.446555633833832 0.5281832361111192 5.302112116896648 -0.35589826077296016
O 17.768932678115995 0.20874337768185194 16.42332357029541 0.6932355954445972
H 17.576049399226164 0.501981583804905 15.528908351088527 -0.32788172128945503
H 16.945560592351082 21.652047860368803 16.788279759919853 -0.3418092057976295
O 18.235277126821305 20.540038839154615 12.272720432618417 0.6973588526932941
H 18.220953443665653 19.625371815378667 12.73318380248785 -0.3047470815119939
H 18.27524251508436 20.432762072422456 11.284524574018173 -0.35412325762850394
O 14.245723111254787 20.762907450371717 11.127457246287314 0.669604690994035
H 14.735986512411552 20.170729311754634 11.662666582863519 -0.33457612307859597
H 13.752265505301958 21.379274590122876 11.686811094952319 -0.3494522415786926
O 10.006615655202904 18.960785646599344 11.539690439797802 0.6677321904666087
H 9.376939950456542 18.25822797474202 11.221290605454449 -0.3422415756203451
H 10.908981813486626 18.605606814419275 11.538531810607772 -0.3509249774944593
O 13.524893033680993 19.137318539414988 1.68361714680243 0.6679675660281541
H 13.874391839146185 18.738047658347355 0.8546839241160088 -0.3236535006868887
H 12.60907429203742 18.758561794938412 1.8472301496379762 -0.3522512278075637
O 13.000506531191872 1.3193821042752047 6.91348205647666 0.656795401102225
H 12.435282016543516 2.0814890257254186 6.922172353320944 -0.32002469004637246
H 13.12172931969585 0.9921260044111528 7.823338877714881 -0.33191032627224815
O 15.9236021881814 20.834254430036815 8.815961788306845 0.657751594607145
H 15.090812822961885 20.839073092324796 9.3496555104702 -0.34051088360655235
H 15.974761999865992 21.631661658547486 8.286747169620341 -0.33728565384119513
O 8.649481321113205 0.2714602010504742 20.56905792760673 0.6048501432884983
H 9.249095144295804 0.9106834156670726 20.115607658023922 -0.308671855817504
H 8.838750071697316 21.183198749214164 20.243192741684542 -0.31587920503623357
O 6.138798174092573 19.836029418393167 19.79829956124544 0.6686353302640331
H 7.076708065036427 19.62556181222928 19.842788986763058 -0.2988467470146172
H 5.83625152436037 19.65998799109048 18.84728719660418 -0.3485650341063341
O 2.9707798876178937 18.970888119513614 20.333924360956164 0.6628589739522539
H 3.463632737851417 19.797234224504944 20.131144257514602 -0.3068961107204998
H 3.580285887446034 18.325978492939903 20.785278098729297 -0.34207589283105155
O 15.409366454197446 21.367307643157904 19.866763027930684 0.6657971500680526
H 14.794505558856203 20.6155274311214 20.09437264392406 -0.34238595651313997
H 15.597477029138537 0.06049563566217394 20.70926231659979 -0.3572868497404179
O 17.266621928070613 19.96329252192879 2.0231793116928536 0.6372494186128037
H 17.959254390243924 19.801095946520483 1.380222362924538 -0.31499220440261266
H 16.98189713937189 19.113574446146796 2.386007765978757 -0.32052446494888553
O 0.7410939736945532 0.23640007374815805 18.94911097179087 0.6082694655996459
H 21.677076654077617 21.800050576780645 18.669291249971277 -0.30603314433065054
H 1.056191620687823 1.01095187849333 18.401442529565255 -0.2999106036176038
O 13.517048389355802 19.13377477108783 20.291895795553337 0.66167429846828
H 13.88806053043504 18.734068120083887 19.473345808269407 -0.3332447181932262
H 12.630464415929518 18.77720923739264 20.529072570834707 -0.3387141256035664
O 20.918372003756247 6.280423216792209 1.1262601610998952 0.6145978873800599
H 19.99331889669906 6.270917681460034 1.4771909621448902 -0.30985036143649813
H 20.93436819114738 5.875259617963289 0.2384264449405606 -0.3130543194392349
O 20.86837000591273 2.7591727366595356 9.962371069772166 0.7484828758043038
H 21.224784014817008 2.561344992543858 10.895146110272615 -0.34563062331636607
H 19.991740830580955 2.330602391349585 9.801546122029807 -0.35001386928679556
O 18.80644276070688 3.6872804793636194 6.466634951812162 0.6487352068064434
H 18.014217941187905 4.117101498228484 6.879453632036137 -0.3220622803075084
H 18.548590111118614 2.940466132784896 5.839376553000674 -0.3472803659509428
O 0.1491972666399329 14.356422469037724 10.612540372307468 0.655637478549183
H 21.19967016050014 14.065914188548247 10.070561870180395 -0.29727698267839386
H 0.656622773739402 14.937913168984387 10.025502477878849 -0.33369681495566683
O 20.92903636344745 17.131118907597127 4.823673182201524 0.7032091167731309
H 21.288159699401817 17.92559123580623 5.3669372152781145 -0.3600421678131843
H 21.353325355952858 17.1187751716434 3.9020398962319787 -0.3187819458138548
O 20.922243539789424 14.350331965768419 5.38280253284073 0.6666136779757768
H 20.66851344623794 15.291239513272101 5.389884800224546 -0.3310899265831584
H 20.19403861263335 13.812180941120825 5.820502518845516 -0.33000153336229343
O 21.019756017596784 10.911178766624023 8.862367014466056 0.678271328755299
H 21.167963268152434 10.121143306647072 9.389639396749455 -0.3265118235981629
H 20.48722253167374 11.539016266917091 9.381030478654042 -0.3469335551836902
O 19.84045384221734 6.429984893359787 5.636142389216716 0.6688702309818391
H 19.37961654970028 5.5707525893305005 5.815481134577062 -0.33487224231690216
H 19.831310713091433 6.96642819264499 6.473105339742941 -0.3412331416673744
O 19.762307749382746 7.365086258953974 15.968798254265229 0.6548890018074305
H 20.64652597811137 7.284767442409095 16.40414437535905 -0.32743471592410045
H 19.59294488000975 8.335227934208882 15.749676922964046 -0.35247770450231364
O 20.590422261837038 9.761621773735962 12.635985928323908 0.6785205282565592
H 21.490775278930844 9.330437932323235 12.502958851401718 -0.3618482882907137
H 19.87691275462832 9.125511613968934 12.453672159422629 -0.3222755345733581
O 19.3831436430212 8.10606293286032 7.88952751907714 0.6835297677626553
H 20.35767177839244 7.99914452144572 7.975381398227444 -0.35660637281952023
H 19.1284725986729 9.039174993668535 8.061831695442295 -0.33792599756710795
O 19.92419028978461 18.21662181079959 15.714806987327883 0.6758061853717106
H 19.829510987547902 18.10784879759237 16.681608771842306 -0.36617401774266256
H 19.08294550683076 18.559901419150716 15.351083025509388 -0.3111794313595312
O 20.633592693500766 2.8511984989753385 14.991395716119694 0.6612148434535445
H 19.823338901503146 3.439960936687851 14.879229656831654 -0.3418027142937208
H 20.544358424908616 2.3909036271937896 15.853139462926828 -0.3253795604407608
O 0.6153523415549653 7.002644370515449 4.802019586931737 0.6952199438065971
H 1.0897064322005632 6.059143112443609 4.813798028714662 -0.3302952355007037
H 21.502700568002098 6.88175673123052 5.087904954210247 -0.33235971952681254
O 19.400887952305364 5.564036160289175 13.866253199504898 0.7185636886510478
H 20.285607808558495 5.5183292710717105 13.4608926850124 -0.3591396791006084
H 19.341080851172556 6.275615836719259 14.51955420578904 -0.3538538469925706
O 0.8848722552141342 8.127539384921501 12.510765617580505 0.6553822740951558
H 1.7388318486771854 8.255868207233245 13.018357652500725 -0.3357435209770083
H 0.47224435685209426 7.26570712583269 12.769920747764838 -0.33357558419283795
O 19.26330981975909 15.637404815215632 13.322330628198744 0.6355772295613527
H 18.792894774666845 16.42079823134569 12.979443312257366 -0.3349353488669866
H 20.223609825136997 15.838528234768454 13.37782113223879 -0.34491183080618426
O 21.69626740404184 2.1217220257365828 12.31540421634544 0.6379141319178085
H 21.45244392725464 2.502012034007472 13.186696335335304 -0.3322397193641966
H 21.406532843061093 1.2123210159697815 12.218258157867227 -0.34095863863811304
O 18.99776984518874 13.099212926212257 12.817073267957603 0.7109796618640996
H 19.511303887046925 12.637137143136803 13.51642907541919 -0.34025833335282973
H 19.24011954477381 14.071540657977348 12.889344308348438 -0.3566715320115711
O 21.810065354444824 8.10032434103518 9.507821326364995 0.634729088219788
H 0.9107846268646982 8.455445379892291 9.504875549109771 -0.33753281238444477
H 21.755856746199818 7.2510069844659135 10.015782103056711 -0.3005863989315808
O 18.696284269233082 13.253158538700836 1.9960406223891092 0.7060730723418454
H 17.767519798315007 13.462569800158935 1.7013727639005882 -0.3481699359513678
H 18.788708330139546 12.275046765516448 2.1196128948036317 -0.3389384547046391
O 19.50161289174246 18.00318443647261 9.272653113943614 0.7066561166688592
H 19.09282012799143 17.163370791347887 8.995526630820374 -0.3739919571390212
H 20.422841123396143 18.04401406804339 8.942150642576832 -0.3380751184310927
O 1.829543427818739 15.683580165149897 9.100231221284922 0.6494907913322105
H 2.4519751210342258 16.39247618888283 9.183960618587406 -0.33934742815920915
H 2.2521984127356744 14.905386415075554 8.703061084094525 -0.3314166759622017
O 19.024034065067216 5.443606524823468 11.133257956299023 0.678509976247085
H 19.85994377871939 5.155095920181406 10.713173680322845 -0.3392801327537195
H 19.124723044959122 5.566991733771489 12.124255965573095 -0.33561265597630285
O 20.506245297460303 5.200950462648505 17.22117680787761 0.6661848894821283
H 21.09271667647218 4.825174237313574 16.548834173238575 -0.3210288096149815
H 19.954484494315366 5.883403539777541 16.830695924442058 -0.3648102407199044
O 21.144393602164946 15.64387995387657 17.4315466647996 0.6547347275419417
H 20.846900041842495 16.184554191109054 18.20032634939327 -0.3513052030952327
H 21.06639346641523 14.712871749520351 17.72408723825846 -0.30965221915272356
O 1.5191373223591904 5.003412425632419 1.9092728241558365 0.6194126118616534
H 2.10409692887107 5.821833346759557 1.9712955898646838 -0.28703294979075145
H 0.5705365119851227 5.308326093399019 2.001841747095283 -0.3264680197281019
O 20.208038883318324 11.356968804424735 14.654989604974082 0.690543494822661
H 20.405194974550557 10.729139318185457 15.428060545771643 -0.3326121928884752
H 20.30546463968975 10.879629166685838 13.789951944882596 -0.3652694399187255
O 19.452891102283164 12.585024597211202 10.226405050688946 0.6937905133754247
H 19.389742284756824 12.552527395949076 11.224093319635154 -0.35911424808320636
H 18.608636194271373 12.192612071069235 9.856452114860087 -0.3285401944875246
O 19.92075643809567 17.932946441590513 18.51376304449346 0.7442973542129092
H 19.51867178300272 17.236301750435743 19.003834482803995 -0.3620040507333453
H 20.564254647525658 18.413173673217088 19.095751907981704 -0.3551577239281203
O 21.252712708468145 3.2575565719151114 7.204358383330759 0.6975808959335872
H 20.48330700821004 3.756450575937632 6.861406056136209 -0.34369736410072094
H 21.15152718016446 3.1213799104535034 8.144068799450375 -0.33932581025091435
O 0.5048388655106761 12.8911029167466 14.902393091672234 0.665442965127319
H 0.3865804203885484 13.74343824667291 14.542919658092467 -0.3092052558127988
H 21.517055481741156 12.360419394009043 14.781715266550997 -0.3242672749556209
O 21.168665143168905 13.482358925057556 2.897795931025251 0.7339766190467873
H 20.229001777817768 13.513176020621875 2.5959871654826046 -0.3542032118776772
H 21.28572298009591 13.992965948811214 3.739826960054606 -0.3343243168760024
O 19.67519691810846 10.131563246012826 17.265520115938287 0.6693311799572363
H 18.91974937463178 9.770222420296149 17.788052521056688 -0.35829442263231825
H 20.491143222944014 9.820595309947059 17.67984410607349 -0.30087097466238244
O 19.36895436904514 3.4496381149468283 0.33718257160098725 0.624899774805387
H 18.49382219167291 3.1649239917366683 0.06754974615370513 -0.3124368302811952
H 19.70667926174575 4.193392254432811 21.61102766086803 -0.3136478473189278
O 19.35083119426437 1.662030614716538 3.1799784621421407 0.6461977510810861
H 19.208580246525596 2.5165326303799955 2.633325504881638 -0.3325918017944851
H 20.212570572661605 1.2928525963075568 2.9818139017944505 -0.322373283820518
O 0.691767469059825 17.42169720504427 15.604406769213009 0.6941006674093408
H 21.616233642955176 17.82862929598029 15.605853498980563 -0.34554830236876033
H 0.6008680576087918 16.46336413576232 15.921338526927808 -0.35874485703582026
O 19.404513013364955 12.400461643864563 6.534363284260693 0.6638778696170053
H 19.415278240010352 11.952554194122355 7.394307939304399 -0.3358820774634298
H 20.220815766058895 12.147297784726808 6.035131764321248 -0.35553913531331904
O 1.0671513024090373 4.243129754046572 5.190681477253029 0.6674680270125846
H 1.3499978660287604 3.5190714714929903 4.595701500974478 -0.34067913322562793
H 0.6660801959627513 3.8348710125300363 5.969717874202619 -0.3451902456045378
O 21.789774789482003 5.470458406784451 12.798014593151425 0.6343257226672776
H 0.36017759987197523 4.887280995691145 13.498694097574134 -0.32051080032069357
H 0.3782665355111784 5.217742219027544 11.944248117231586 -0.3603802834839973
O 19.008087078223753 10.773137686578403 2.994044825411544 0.6967023941903179
H 20.01833907217288 10.670916015770207 2.9290271502724967 -0.34653741852621645
H 18.614297460166384 9.93580990554696 3.3056562229526683 -0.34833887262526697
O 20.91434333308996 6.2790336463234615 19.752302895717552 0.6603021978077468
H 19.980063701909174 6.268980602909257 20.12692655973447 -0.31651217923969865
H 20.94955946228087 5.916106484283952 18.860253947900773 -0.3404969462804299
O 20.93328386973836 17.13459308512162 1.615669906092762 0.6235695364173459
H 21.289810586399064 17.925841039510864 2.1331961049109447 -0.2929052248002981
H 21.397455370349352 17.116628985394204 0.736137898594289 -0.3349165482263964
O 18.890552925371754 15.957174300942915 19.80104989721297 0.687502560467049
H 18.68487910514616 15.035440623622302 20.020806512617302 -0.3609460352656041
H 18.601037420285746 16.50403302377946 20.50806769841912 -0.33270344050390177
O 1.432094899666167 17.430419089703474 0.01869242066200664 0.6921446368578072
H 1.7397389462620143 17.786978435736795 0.8655235446797332 -0.35967602400014254
H 2.2090394088479215 17.355861715312948 21.205158507801766 -0.3453457433898989
O 2.1756749008259213 0.640244880506448 1.909056304369907 0.6447149202596423
H 1.3961006421795554 0.6727235228885232 2.4867262840844844 -0.2835184115183398
H 2.1469200021391104 1.4561451257763194 1.386333968023421 -0.3429824515281603
O 2.0671676415350175 2.5620187144609106 0.07246444835761252 0.656344938738453
H 2.328320550299281 1.9594234779063069 21.165159477745707 -0.3085888960698586
H 2.096121093160881 3.485832758041756 21.583952702712285 -0.3487625266157519
O 18.69625397688681 13.260561788995405 20.624389766580936 0.7223765727647216
H 17.78428378006453 13.492729318200842 20.31021692519612 -0.3628710564611126
H 18.821192413338423 12.26730165671498 20.747064631873545 -0.3561479521809825
O 1.53127014926741 5.00424565356774 20.535321432185874 0.6210460463195728
H 2.12465378957303 5.775147825900633 20.58858452819501 -0.2950447457792502
H 0.5948376010806954 5.314481768479593 20.56069654087417 -0.32925805760802485
O 21.163325286749615 13.486503469038663 21.519005208702026 0.7103027677980167
H 20.191640505565942 13.499260649379547 21.277640280348187 -0.36557769910553006
H 21.284373279738034 13.998874159683503 0.5116820523129165 -0.32116302326973756
O 19.37618266049587 3.452974003369283 18.953240047955145 0.6756314341167027
H 18.433775284964792 3.1683661774394607 18.66732436352758 -0.31448415231924587
H 19.70584289164837 4.198036849271297 18.39511738922746 -0.3412459775704253
O 19.01396877749654 10.764390872450278 21.622933536884666 0.6850894738350881
H 19.969606690196034 10.645143853102784 21.529875510599616 -0.3313258509704745
H 18.66141540766747 9.899932623578751 0.13453173379142888 -0.3514848404340083
O 20.868130769823335 21.36865329675152 9.956195889700382 0.7361835379068955
H 21.2418849161631 21.19909899380692 10.860765625984685 -0.3527800478891904
H 19.999149838621747 20.931613831884174 9.835357421643941 -0.3389384337101483
O 18.814452470741543 0.46794337815912035 6.478174784524338 0.6480457721195947
H 18.00657977074679 0.9085947451630356 6.83603589618948 -0.3290733738510818
H 18.54306508904743 21.565140708319365 5.865552430315093 -0.3295085180944489
O 2.2941729441418532 20.575944463337976 8.849855314927474 0.6336088256049432
H 2.256821906269346 20.517833652823427 9.840356852896848 -0.32337962634696926
H 2.2820416170552504 21.52219343043774 8.560197381086848 -0.3105692369673835
O 20.638045071909534 21.473420428625026 14.974886114952664 0.6514462602637767
H 19.86154667598433 0.2433705753043361 14.86982015593424 -0.3269747195596784
H 20.52973223534474 20.99123072679156 15.80774075518957 -0.3357349999659499
O 1.8242678262131553 19.121750170860444 17.404015398340427 0.6796122098596573
H 1.4255542443644518 18.55286645047274 16.68840636067763 -0.34618107458934366
H 1.1686541059985982 19.793492654902746 17.745417840871937 -0.3027983308249881
O 21.691801268624644 20.73932256772943 12.305705777384372 0.6373967125337296
H 21.423307027973987 21.114954129724836 13.216482698139545 -0.33418082661752124
H 21.414224967647954 19.79756464305829 12.23712373195191 -0.3329118474157905
O 21.695085872143398 19.243888891002715 6.180774503255738 0.6495631832528632
H 21.588497156641715 20.203787369612336 6.4995199770730565 -0.3559863493911304
H 21.608334210991902 18.658869938303486 6.981144757696736 -0.30765836688419956
O 21.25465272069667 0.05794016625397306 7.206632544522059 0.7091739667455439
H 20.475076214530876 0.5295966419472427 6.873621801120189 -0.36632970333724035
H 21.160824438853197 21.688214544873983 8.171097665974214 -0.34679492483365326
O 19.365658462747078 0.24901834639836282 0.3188063053728883 0.6315242950087505
H 18.478978948818423 21.798362937889593 0.03336542357702345 -0.30552718947321544
H 19.661870856002825 1.009112433890331 21.60131198911166 -0.339022480412703
O 19.34555918934159 20.283279875438062 3.178169524264256 0.6535707864169984
H 19.124584674935196 21.09658047779354 2.6687046664989436 -0.3494253818087656
H 20.222151930473768 19.941977489982996 2.9794754134109525 -0.3225724318956704
O 1.0710850094104007 1.0304744674227635 5.2069177378262825 0.6491993916049239
H 1.3596580273945 0.2908767756345593 4.564669840429711 -0.30239571699291
H 0.6930033648246486 0.612409316011881 6.019332498686377 -0.3324218323250804
O 2.1858360926144504 19.258048729899446 1.9019573048112877 0.6694171264032729
H 1.3838529671971735 19.271914415288567 2.4974623656916717 -0.28471986745548505
H 2.218357396285411 20.089980556429865 1.3710368971416997 -0.376966409204851
O 21.587669428780753 18.973470490764594 20.323150868352577 0.6822938762055042
H 0.23288370319478846 19.79397256568069 20.124084570307662 -0.3328311690998106
H 0.4015994545958211 18.354371428301413 20.77496394679896 -0.3532514667745066
O 2.0657570760502995 21.187088325287984 0.07106891290795188 0.6918947956279187
H 2.31413037261868 20.60493276373589 21.192332887560603 -0.3117591172922002
H 2.0786212639230106 0.28363978576401333 21.56179356560362 -0.37195251006728824
O 19.364787557226215 0.23934959084045665 18.962291986128065 0.626402410924233
H 18.490034480422636 21.806547584523475 18.659406216300837 -0.3257267616165783
H 19.697316447404884 0.9990992247819236 18.38018575551473 -0.3011738123515919
